ATOMIC_SPECIES
Sr 87.620000 Sr_ONCV_PBE-1.0.upf
Al 26.981500 Al.PD04.PBE.upf

LATTICE_CONSTANT
1.889726

LATTICE_VECTORS
   13.01385200000     0.00000000000     0.00000000000
    0.00000000000    13.01385200000     0.00000000000
    0.00000000000     0.00000000000    13.01385200000

ATOMIC_POSITIONS
Cartesian

Sr
0.000000
36
    0.78311000000     7.29003000000    12.23074000000 1 1 1 
    7.29003000000    12.23074000000     0.78311000000 1 1 1 
   12.23074000000     0.78311000000     7.29003000000 1 1 1 
    5.72382000000     5.72382000000     5.72382000000 1 1 1 
    8.84634000000     2.33941000000     4.16752000000 1 1 1 
    2.33941000000     4.16752000000     8.84634000000 1 1 1 
    4.16752000000     8.84634000000     2.33941000000 1 1 1 
   10.67444000000    10.67444000000    10.67444000000 1 1 1 
    4.23361000000    10.74054000000     8.78024000000 1 1 1 
   10.74054000000     8.78024000000     4.23361000000 1 1 1 
    8.78024000000     4.23361000000    10.74054000000 1 1 1 
    2.27331000000     2.27331000000     2.27331000000 1 1 1 
    6.27437000000     2.92976000000     0.78634000000 1 1 1 
   12.22752000000    12.78129000000     3.57717000000 1 1 1 
    9.43668000000     5.72059000000     6.73948000000 1 1 1 
   12.78129000000     3.57717000000    12.22752000000 1 1 1 
    5.72059000000     6.73948000000     9.43668000000 1 1 1 
    2.92976000000     0.78634000000     6.27437000000 1 1 1 
    6.73948000000     9.43668000000     5.72059000000 1 1 1 
    0.78634000000     6.27437000000     2.92976000000 1 1 1 
    3.57717000000    12.22752000000    12.78129000000 1 1 1 
    0.23256000000    10.08410000000     7.29326000000 1 1 1 
    7.29326000000     0.23256000000    10.08410000000 1 1 1 
   10.08410000000     7.29326000000     0.23256000000 1 1 1 
    7.37256000000     6.17444000000     2.57320000000 1 1 1 
   10.44065000000     0.86563000000     0.33249000000 1 1 1 
   12.68136000000     3.93372000000     5.64130000000 1 1 1 
    0.86563000000     0.33249000000    10.44065000000 1 1 1 
    3.93372000000     5.64130000000    12.68136000000 1 1 1 
    6.17444000000     2.57320000000     7.37256000000 1 1 1 
    5.64130000000    12.68136000000     3.93372000000 1 1 1 
    2.57320000000     7.37256000000     6.17444000000 1 1 1 
    0.33249000000    10.44065000000     0.86563000000 1 1 1 
   12.14822000000     6.83942000000     9.08013000000 1 1 1 
    9.08013000000    12.14822000000     6.83942000000 1 1 1 
    6.83942000000     9.08013000000    12.14822000000 1 1 1 

Al
0.000000
24
   11.81165000000     3.45975000000     8.99961000000 1 1 1 
    4.01424000000     5.30472000000     3.04718000000 1 1 1 
    9.96667000000    10.52117000000     1.20221000000 1 1 1 
    5.30472000000     3.04718000000     4.01424000000 1 1 1 
   10.52117000000     1.20221000000     9.96667000000 1 1 1 
    3.45975000000     8.99961000000    11.81165000000 1 1 1 
    1.20221000000     9.96667000000    10.52117000000 1 1 1 
    8.99961000000    11.81165000000     3.45975000000 1 1 1 
    3.04718000000     4.01424000000     5.30472000000 1 1 1 
    7.70913000000     9.55411000000     2.49269000000 1 1 1 
    2.49269000000     7.70913000000     9.55411000000 1 1 1 
    9.55411000000     2.49269000000     7.70913000000 1 1 1 
   11.87722000000     3.18851000000     2.47384000000 1 1 1 
   10.54001000000     5.37030000000     3.31842000000 1 1 1 
    9.69544000000     4.03308000000     1.13663000000 1 1 1 
    5.37030000000     3.31842000000    10.54001000000 1 1 1 
    4.03308000000     1.13663000000     9.69544000000 1 1 1 
    3.18851000000     2.47384000000    11.87722000000 1 1 1 
    1.13663000000     9.69544000000     4.03308000000 1 1 1 
    2.47384000000    11.87722000000     3.18851000000 1 1 1 
    3.31842000000    10.54001000000     5.37030000000 1 1 1 
    7.64356000000     9.82534000000     8.98077000000 1 1 1 
    8.98077000000     7.64356000000     9.82534000000 1 1 1 
    9.82534000000     8.98077000000     7.64356000000 1 1 1 
