ATOMIC_SPECIES
Cu 63.546000 Cu.upf
Au 196.966500 Au.pbe-n-nc.UPF

LATTICE_CONSTANT
1.889726

LATTICE_VECTORS
    4.05328600000     0.00000000000     0.00000000000
    0.00000000000     4.05328600000     0.00000000000
    0.00000000000     0.00000000000     4.05328600000

ATOMIC_POSITIONS
Cartesian

Cu
0.000000
1
    0.00000000000     0.00000000000     0.00000000000 1 1 1 

Au
0.000000
3
    2.02664000000     2.02664000000     0.00000000000 1 1 1 
    2.02664000000     0.00000000000     2.02664000000 1 1 1 
    0.00000000000     2.02664000000     2.02664000000 1 1 1 
