INPUT_PARAMETERS
calculation	scf
basis_type	pw
symmetry	0
ecutwfc	100
scf_thr	1e-08
scf_nmax 200
cal_force	1
cal_stress	1
kspacing	0.08
pseudo_rcut	10
pseudo_mesh	1
ks_solver	dav
smearing_method gauss
smearing_sigma 0.015
