ATOMIC_SPECIES
Ti 47.867000 Ti_ONCV_PBE-1.0.upf
Ge 72.640000 Ge-low.PD04.PBE.UPF
Ir 192.217000 Ir_ONCV_PBE-1.0.upf

LATTICE_CONSTANT
1.889726

LATTICE_VECTORS
    3.98532600000     0.00000000000     0.00000000000
    0.00000000000     6.31743100000     0.00000000000
    0.00000000000     0.00000000000     7.43087000000

ATOMIC_POSITIONS
Cartesian

Ti
0.000000
4
    0.99633000000     0.17151000000     2.33905000000 1 1 1 
    0.99633000000     3.33023000000     1.37638000000 1 1 1 
    2.98899000000     6.14592000000     5.09182000000 1 1 1 
    2.98899000000     2.98720000000     6.05449000000 1 1 1 

Ge
0.000000
4
    0.99633000000     1.64915000000     4.63325000000 1 1 1 
    0.99633000000     4.80787000000     6.51305000000 1 1 1 
    2.98899000000     4.66828000000     2.79762000000 1 1 1 
    2.98899000000     1.50956000000     0.91782000000 1 1 1 

Ir
0.000000
4
    0.99633000000     0.98480000000     6.98849000000 1 1 1 
    0.99633000000     4.14351000000     4.15782000000 1 1 1 
    2.98899000000     5.33263000000     0.44238000000 1 1 1 
    2.98899000000     2.17392000000     3.27305000000 1 1 1 
