ATOMIC_SPECIES
Eu 151.964000 Eu.upf
Cl 35.453000 Cl.PD03.PBE.UPF
F 18.998400 F.upf

LATTICE_CONSTANT
1.000000

LATTICE_VECTORS
    7.81292027707     0.00000000000     0.00000000000
    0.00000000000     7.81292027707     0.00000000000
    0.00000000000     0.00000000000    13.28814564461

ATOMIC_POSITIONS
Cartesian

Eu
0.000000
2
    0.00000000000     3.90646013853    10.55559795054 
    3.90646013853     0.00000000000     2.73254769407 

Cl
0.000000
2
    0.00000000000     3.90646013853     4.69798402821 
    3.90646013853     0.00000000000     8.59016161640 

F
0.000000
2
    0.00000000000     0.00000000000     0.00000000000 
    3.90646013853     3.90646013853     0.00000000000 
