ATOMIC_SPECIES
Er 167.259000 Er.upf
Al 26.981500 Al.PD04.PBE.upf
Ni 58.693400 Ni_ONCV_PBE-1.0.upf

LATTICE_CONSTANT
1.889726

LATTICE_VECTORS
    5.04159000400     0.00000000000     0.00000000000
   -2.52079500200     4.36614500300     0.00000000000
    0.00000000000     0.00000000000    15.93534400000

ATOMIC_POSITIONS
Cartesian

Er
0.000000
6
    2.52080000000     1.45538000000     0.70327000000 1 1 1 
    0.00000000000     2.91076000000    15.23207000000 1 1 1 
    0.00000000000     2.91076000000     8.67095000000 1 1 1 
    2.52080000000     1.45538000000     7.26440000000 1 1 1 
    2.52080000000     1.45538000000     3.98384000000 1 1 1 
    0.00000000000     2.91076000000    11.95151000000 1 1 1 

Al
0.000000
2
    0.00000000000     0.00000000000     7.96767000000 1 1 1 
    0.00000000000     0.00000000000     0.00000000000 1 1 1 

Ni
0.000000
16
    2.52080000000     2.89195000000     9.96722000000 1 1 1 
    3.76490000000     0.73710000000     9.96722000000 1 1 1 
    1.27669000000     0.73710000000     9.96722000000 1 1 1 
    0.00000000000     1.47419000000     5.96812000000 1 1 1 
   -1.24411000000     3.62905000000     5.96812000000 1 1 1 
    1.24411000000     3.62905000000     5.96812000000 1 1 1 
    0.00000000000     1.47419000000     1.99955000000 1 1 1 
   -1.24411000000     3.62905000000     1.99955000000 1 1 1 
    1.24411000000     3.62905000000     1.99955000000 1 1 1 
    2.52080000000     2.89195000000    13.93579000000 1 1 1 
    3.76490000000     0.73710000000    13.93579000000 1 1 1 
    1.27669000000     0.73710000000    13.93579000000 1 1 1 
    2.52080000000     1.45538000000    11.95151000000 1 1 1 
    0.00000000000     2.91076000000     3.98384000000 1 1 1 
    0.00000000000     0.00000000000    11.95151000000 1 1 1 
    0.00000000000     0.00000000000     3.98384000000 1 1 1 
