ATOMIC_SPECIES
La 138.905500 La_ONCV_PBE-1.0.upf
Ge 72.640000 Ge-low.PD04.PBE.UPF
Au 196.966500 Au.pbe-n-nc.UPF

LATTICE_CONSTANT
1.889726

LATTICE_VECTORS
    4.55606799500     0.00000000000     0.00000000000
   -2.27803399700     3.94566999600     0.00000000000
    0.00000000000     0.00000000000     8.19178200000

ATOMIC_POSITIONS
Cartesian

La
0.000000
2
    0.00000000000     0.00000000000     8.11475000000 1 1 1 
    0.00000000000     0.00000000000     4.01886000000 1 1 1 

Ge
0.000000
2
    2.27803000000     1.31522000000     1.81740000000 1 1 1 
    0.00000000000     2.63045000000     5.91329000000 1 1 1 

Au
0.000000
2
    0.00000000000     2.63045000000     2.05325000000 1 1 1 
    2.27803000000     1.31522000000     6.14914000000 1 1 1 
