ATOMIC_SPECIES
Na 22.989 Na_ONCV_PBE-1.0.upf upf201

NUMERICAL_ORBITAL
Na_gga_8au_100Ry_4s2p1d.orb

LATTICE_CONSTANT
1.88972612463

LATTICE_VECTORS
    5.2710178419     0.0000000000     0.0000000000 #latvec1
    0.0000000000     5.2710178419    -0.0000000000 #latvec2
    0.0000000000    -0.0000000000     5.2710178419 #latvec3

ATOMIC_POSITIONS
Direct

Na #label
0 #magnetism
4 #number of atoms
    0.0000000000     0.0000000000     0.0000000000 m  1  1  1 mag         1.0000000000
    0.0000000000     0.5000000000     0.5000000000 m  1  1  1 mag         1.0000000000
    0.5000000000     0.0000000000     0.5000000000 m  1  1  1 mag         1.0000000000
    0.5000000000     0.5000000000     1.0000000000 m  1  1  1 mag         1.0000000000
