LATTICE_CONSTANT
1.8897261246257702

LATTICE_VECTORS
5.287146079416758 -6.715782048928096e-33 0.0 
1.1000000000000001e-15 5.287146079416759 4.930380657631324e-32 
5e-16 4.999999999999998e-16 5.287146079416759 

ATOMIC_POSITIONS
Cartesian    # Cartesian(Unit is LATTICE_CONSTANT)
Na
0 
4
0.000000000000 0.000000000000 0.000000000000 1 1 1
0.000000000000 2.643573039708 2.643573039708 1 1 1
2.643573039708 0.000000000000 2.643573039708 1 1 1
2.643573039708 2.643573039708 0.000000000000 1 1 1

ATOMIC_SPECIES
Na 22.989 Na_ONCV_PBE-1.0.upf

NUMERICAL_ORBITAL
Na_gga_8au_100Ry_4s2p1d.orb
