ATOMIC_SPECIES
Ac 227.000000 Ac-5spd.upf
O 15.999400 O.upf

LATTICE_CONSTANT
1.000000

LATTICE_VECTORS
    7.74879503235     0.00000000000     0.00000000000
   -3.87439698326     6.71065365441     0.00000000000
    0.00000000000     0.00000000000    12.05328850919

ATOMIC_POSITIONS
Cartesian

Ac
0.000000
2
    3.87440156821     2.23688231458     9.08046543129 
   -0.00000351912     4.47377133982     2.97282307791 

O
0.000000
3
    3.87440156821     2.23688231458     4.29426125704 
   -0.00000351912     4.47377133982     7.75902725216 
    0.00000000000     0.00000000000     0.00000000000 
