ATOMIC_SPECIES
I 126.904 ./I_ONCV_PBE-1.0.upf
Pb 207.200 ./Pb_ONCV_PBE-1.0.upf
C 12.011 ./C_ONCV_PBE-1.0.upf
N 14.007 ./N_ONCV_PBE-1.0.upf
H 1.008 ./H_ONCV_PBE-1.0.upf

NUMERICAL_ORBITAL
./I_gga_7au_100Ry_2s2p2d1f.orb
./Pb_gga_7au_100Ry_2s2p2d1f.orb
./C_gga_7au_100Ry_2s2p1d.orb
./N_gga_7au_100Ry_2s2p1d.orb
./H_gga_6au_100Ry_2s1p.orb

LATTICE_CONSTANT
1.889716

LATTICE_VECTORS
    6.32093     0.09363    -0.04186
    0.35895     6.33665     0.09076
   -0.47074    -0.50148     6.31153

ATOMIC_POSITIONS
Direct

I
0.0
3
  0.4818660   0.8666470   0.3335530 1 1 1
  0.5045330   0.3280330   0.8686640 1 1 1
  0.9919970   0.4060200   0.4115990 1 1 1

Pb
0.0
1
  0.4919750   0.3659090   0.3668110 1 1 1

C
0.0
1
  0.9937900   0.9105820   0.9123850 1 1 1

N
0.0
2
  0.8613130   0.7627990   0.9259310 1 1 1
  0.1229510   0.9142790   0.7611650 1 1 1

H
0.0
5
  0.1274740   0.7998960   0.6400010 1 1 1
  0.7604860   0.7745910   0.0451710 1 1 1
  0.2263530   0.0317560   0.7654030 1 1 1
  0.9966580   0.0395740   0.0357300 1 1 1
  0.8505150   0.6369050   0.8174480 1 1 1

