ATOMIC_SPECIES
In 114.818 In_ONCV_PBE-1.0.upf
P 30.974 P_ONCV_PBE-1.0.upf

NUMERICAL_ORBITAL
In_gga_7au_100Ry_2s2p2d1f.orb
P_gga_7au_100Ry_2s2p1d.orb

LATTICE_CONSTANT
1.889716

LATTICE_VECTORS
    0.00000     2.95198     2.95198
    2.95198     0.00000     2.95198
    2.95198     2.95198     0.00000

ATOMIC_POSITIONS
Direct

In
0.0
1
  0.0000000   0.0000000   0.0000000 1 1 1

P
0.0
1
  0.2500000   0.2500000   0.2500000 1 1 1

