ATOMIC_SPECIES
Sm 150.360000 Sm.upf
Ga 69.723000 Ga-low.PD04.PBE.UPF

LATTICE_CONSTANT
1.889726

LATTICE_VECTORS
    4.80593700000     0.00000000000     0.00000000000
    0.00000000000     4.80593700000     0.00000000000
    0.00000000000     0.00000000000     4.80593700000

ATOMIC_POSITIONS
Cartesian

Sm
0.000000
3
    2.40297000000     2.40297000000     0.00000000000 1 1 1 
    2.40297000000     0.00000000000     2.40297000000 1 1 1 
    0.00000000000     2.40297000000     2.40297000000 1 1 1 

Ga
0.000000
1
    0.00000000000     0.00000000000     0.00000000000 1 1 1 
