ATOMIC_SPECIES
Li 6.941000 Li.upf
Sm 150.360000 Sm.upf
Bi 208.980400 Bi.upf

LATTICE_CONSTANT
1.000000

LATTICE_VECTORS
    8.86616436575     0.00000000000     0.00000000000
   -4.43308150343     7.67832396714     0.00000000000
    0.00000000000     0.00000000000    13.98493454765

ATOMIC_POSITIONS
Cartesian

Li
0.000000
3
    4.43308684244     2.55943876294     9.09803901932 
   -0.00000398012     5.11888520420     4.88689552833 
    0.00000000000     0.00000000000     6.99246727382 

Sm
0.000000
1
    0.00000000000     0.00000000000     0.00000000000 

Bi
0.000000
2
    4.43308684244     2.55943876294     3.50926759591 
   -0.00000398012     5.11888520420    10.47566695174 
