ATOMIC_SPECIES
Sm 150.360000 Sm.upf
Al 26.981500 Al.PD04.PBE.upf
Au 196.966500 Au.pbe-n-nc.UPF

LATTICE_CONSTANT
1.889726

LATTICE_VECTORS
    8.13763405800     0.00000000000     0.00000000000
    4.06881708600     7.04739778800     0.00000000000
    4.06881710200     2.34913262700     7.07158874800

ATOMIC_POSITIONS
Cartesian

Sm
0.000000
2
    0.00000000000     0.00000000000     0.00000000000 1 1 1 
    8.13763000000     4.69827000000     3.53579000000 1 1 1 

Al
0.000000
14
    7.38536000000     7.94423000000     4.17224000000 1 1 1 
   11.32486000000     3.72677000000     4.17224000000 1 1 1 
    5.70268000000     2.42380000000     4.17224000000 1 1 1 
    7.38536000000     6.15057000000     6.43514000000 1 1 1 
    9.77150000000     4.62360000000     6.43514000000 1 1 1 
    7.25604000000     3.32063000000     6.43514000000 1 1 1 
    8.88991000000     1.45230000000     2.89934000000 1 1 1 
    4.95041000000     5.66976000000     2.89934000000 1 1 1 
   12.20645000000     7.04740000000     5.30369000000 1 1 1 
    4.06882000000     2.34913000000     1.76790000000 1 1 1 
    9.01923000000     6.07590000000     0.63645000000 1 1 1 
    6.50377000000     4.77293000000     0.63645000000 1 1 1 
    8.88991000000     3.24596000000     0.63645000000 1 1 1 
   10.57259000000     6.97273000000     2.89934000000 1 1 1 

Au
0.000000
6
    6.68914000000     2.34913000000     1.76790000000 1 1 1 
    6.82747000000     7.12726000000     1.76790000000 1 1 1 
   10.89629000000     4.61840000000     1.76790000000 1 1 1 
    9.58612000000     7.04740000000     5.30369000000 1 1 1 
    9.44780000000     2.26927000000     5.30369000000 1 1 1 
    5.37898000000     4.77813000000     5.30369000000 1 1 1 
