ATOMIC_SPECIES
Tm 168.934200 Tm.upf
Ga 69.723000 Ga-low.PD04.PBE.UPF
Ni 58.693400 Ni_ONCV_PBE-1.0.upf

LATTICE_CONSTANT
1.889726

LATTICE_VECTORS
    4.04651999800     0.00000000000     0.00000000000
    2.02325999900    10.38541599700     0.00000000000
    2.02325999900     1.78870799900    12.90526299600

ATOMIC_POSITIONS
Cartesian

Tm
0.000000
4
    6.06978000000    10.02457000000     4.29846000000 1 1 1 
    2.02326000000     2.14955000000     8.60680000000 1 1 1 
    2.02326000000     4.09922000000     2.23671000000 1 1 1 
    6.06978000000     8.07491000000    10.66855000000 1 1 1 

Ga
0.000000
21
    4.04652000000     8.05540000000     4.73280000000 1 1 1 
    4.04652000000     4.11872000000     8.17246000000 1 1 1 
    4.04652000000     4.16105000000     0.04748000000 1 1 1 
    4.04652000000     8.01308000000    12.85778000000 1 1 1 
    4.04652000000     1.91727000000     6.41579000000 1 1 1 
    4.04652000000    10.25686000000     6.48948000000 1 1 1 
    6.06978000000     8.07597000000     7.11938000000 1 1 1 
    2.02326000000     4.09816000000     5.78588000000 1 1 1 
    4.04652000000     5.44839000000     3.82641000000 1 1 1 
    4.04652000000     6.72574000000     9.07885000000 1 1 1 
    4.04652000000     2.61944000000     3.78416000000 1 1 1 
    4.04652000000     9.55468000000     9.12110000000 1 1 1 
    4.04652000000     8.24296000000     0.04581000000 1 1 1 
    4.04652000000     3.93116000000    12.85945000000 1 1 1 
    6.06978000000     9.74763000000     1.17208000000 1 1 1 
    2.02326000000     2.42649000000    11.73318000000 1 1 1 
    6.06978000000     4.88921000000    10.26701000000 1 1 1 
    2.02326000000     7.28491000000     2.63825000000 1 1 1 
    4.04652000000     6.08706000000     6.45263000000 1 1 1 
    2.02326000000     0.96541000000     2.53395000000 1 1 1 
    6.06978000000    11.20872000000    10.37131000000 1 1 1 

Ni
0.000000
10
    4.04652000000     8.83857000000     2.38583000000 1 1 1 
    4.04652000000     3.33555000000    10.51943000000 1 1 1 
    4.04652000000     1.88645000000     1.35927000000 1 1 1 
    4.04652000000    10.28768000000    11.54599000000 1 1 1 
    6.06978000000    10.30558000000     7.94229000000 1 1 1 
    2.02326000000     1.86854000000     4.96298000000 1 1 1 
    4.04652000000     6.22564000000     1.47168000000 1 1 1 
    4.04652000000     5.94848000000    11.43359000000 1 1 1 
    6.06978000000     5.67415000000     7.82887000000 1 1 1 
    2.02326000000     6.49997000000     5.07639000000 1 1 1 
