ATOMIC_SPECIES
Gd 157.250000 Gd3+_f--core-icmod1.PD04.PBE.UPF
As 74.921600 As.PD04.PBE.UPF

LATTICE_CONSTANT
1.000000

LATTICE_VECTORS
    7.87975764162     0.00000000000     0.00000000000
    3.93987882081     6.82407029331     0.00000000000
    3.93987882081     2.27469009777     6.43379517292

ATOMIC_POSITIONS
Cartesian

Gd
0.000000
1
    7.87975764162     4.54938019554     3.21689758646 

As
0.000000
1
    0.00000000000     0.00000000000     0.00000000000 
