ATOMIC_SPECIES
Pr 140.907700 Pr3+_f--core-icmod1.PD04.PBE.UPF
Re 186.207000 Re.upf

LATTICE_CONSTANT
1.889726

LATTICE_VECTORS
    5.54254195000     0.00000000000     0.00000000000
    2.77127097500     4.79998213000     0.00000000000
    2.77127097500     1.59999404300     4.52546655200

ATOMIC_POSITIONS
Cartesian

Pr
0.000000
2
    5.54254000000     3.19999000000     2.26273000000 1 1 1 
    2.77127000000     1.59999000000     1.13137000000 1 1 1 

Re
0.000000
4
    8.31381000000     3.19999000000     3.95978000000 1 1 1 
    6.92818000000     5.59998000000     3.95978000000 1 1 1 
    9.69945000000     5.59998000000     3.95978000000 1 1 1 
    8.31381000000     4.79998000000     1.69705000000 1 1 1 
