ATOMIC_SPECIES
Lu 174.967000 Lu.upf
Ge 72.640000 Ge-low.PD04.PBE.UPF
Rh 102.905500 Rh_ONCV_PBE-1.0.upf

LATTICE_CONSTANT
1.889726

LATTICE_VECTORS
    4.21297400000     0.00000000000     0.00000000000
    0.00000000000    13.03180100000     0.00000000000
    0.00000000000     0.00000000000    13.03180100000

ATOMIC_POSITIONS
Cartesian

Lu
0.000000
10
    0.00000000000     6.51590000000     6.51590000000 1 1 1 
    0.00000000000     0.00000000000     0.00000000000 1 1 1 
    2.10649000000     8.79632000000     2.28042000000 1 1 1 
    2.10649000000     4.23548000000    10.75138000000 1 1 1 
    2.10649000000     2.28042000000     4.23548000000 1 1 1 
    2.10649000000    10.75138000000     8.79632000000 1 1 1 
    2.10649000000    11.55740000000     5.04150000000 1 1 1 
    2.10649000000     1.47440000000     7.99031000000 1 1 1 
    2.10649000000     5.04150000000     1.47440000000 1 1 1 
    2.10649000000     7.99031000000    11.55740000000 1 1 1 

Ge
0.000000
20
    0.00000000000     7.37891000000     0.86300000000 1 1 1 
    0.00000000000     5.65290000000    12.16880000000 1 1 1 
    0.00000000000     0.86300000000     5.65290000000 1 1 1 
    0.00000000000    12.16880000000     7.37891000000 1 1 1 
    0.00000000000     8.62566000000     9.11640000000 1 1 1 
    0.00000000000     4.40614000000     3.91540000000 1 1 1 
    0.00000000000     2.10976000000    10.43131000000 1 1 1 
    0.00000000000    10.92204000000     2.60050000000 1 1 1 
    0.00000000000     3.91540000000     8.62566000000 1 1 1 
    0.00000000000     9.11640000000     4.40614000000 1 1 1 
    0.00000000000     2.60050000000     2.10976000000 1 1 1 
    0.00000000000    10.43131000000    10.92204000000 1 1 1 
    2.10649000000     8.53788000000     6.61554000000 1 1 1 
    2.10649000000     4.49393000000     6.41626000000 1 1 1 
    2.10649000000     2.02198000000    12.93216000000 1 1 1 
    2.10649000000    11.00983000000     0.09964000000 1 1 1 
    2.10649000000     6.41626000000     8.53788000000 1 1 1 
    2.10649000000     6.61554000000     4.49393000000 1 1 1 
    2.10649000000     0.09964000000     2.02198000000 1 1 1 
    2.10649000000    12.93216000000    11.00983000000 1 1 1 

Rh
0.000000
8
    0.00000000000     9.73614000000     6.78481000000 1 1 1 
    0.00000000000     3.29566000000     6.24699000000 1 1 1 
    0.00000000000     3.22024000000    12.76289000000 1 1 1 
    0.00000000000     9.81156000000     0.26891000000 1 1 1 
    0.00000000000     6.24699000000     9.73614000000 1 1 1 
    0.00000000000     6.78481000000     3.29566000000 1 1 1 
    0.00000000000     0.26891000000     3.22024000000 1 1 1 
    0.00000000000    12.76289000000     9.81156000000 1 1 1 
