ATOMIC_SPECIES
La 138.905500 La_ONCV_PBE-1.0.upf
P 30.973800 P.upf

LATTICE_CONSTANT
1.000000

LATTICE_VECTORS
    8.08529645990     0.00000000000     0.00000000000
    4.04264822995     7.00207213140     0.00000000000
    4.04264822995     2.33402404380     6.60161691530

ATOMIC_POSITIONS
Cartesian

La
0.000000
1
    0.00000000000     0.00000000000     0.00000000000 

P
0.000000
1
    8.08529645990     4.66804808760     3.30080845765 
