Cd2
1.0
   2.9584744100000000    0.0000000200000000   -0.0000000000000000
  -1.4792381800000001    2.5621143800000001    0.0000000000000000
  -0.0000000000000000    0.0000000000000000    5.8859279300000003
Cd
2
direct
   0.3333330000000000    0.6666670000000000    0.2500000000000000 Cd
   0.6666670000000000    0.3333330000000000    0.7500000000000000 Cd
