Y2
1.0
   3.6425696200000002    0.0000000200000000   -0.0000000000000000
  -1.8212837700000000    3.1545578999999999    0.0000000000000000
   0.0000000000000000   -0.0000000000000000    5.8791583500000000
Y
2
direct
   0.3333330000000000    0.6666670000000000    0.2500000000000000 Y
   0.6666670000000000    0.3333330000000000    0.7500000000000000 Y
