ATOMIC_SPECIES
Li 6.941 Li_ONCV_PBE-1.0.upf upf201
Fe 55.845 Fe_ONCV_PBE-1.0.upf upf201
O 15.999 O_ONCV_PBE-1.0.upf upf201

NUMERICAL_ORBITAL
Li_gga_7au_100Ry_4s1p.orb
Fe_gga_8au_100Ry_4s2p2d1f.orb
O_gga_7au_100Ry_2s2p1d.orb

LATTICE_CONSTANT
1.88972612463

LATTICE_VECTORS
    5.9798699118     0.0000211207     0.0000219950 #latvec1
   -2.9899573363     5.1787069984    -0.0000202134 #latvec2
   -0.0000932590     0.0000432281    14.7190515589 #latvec3

ATOMIC_POSITIONS
Direct

Li #label
0 #magnetism
12 #number of atoms
    0.0000000620     0.9999999478     0.9999969423 m  1  1  1 mag         0.0000000000
    0.0000000162     0.4999999242     0.9999969536 m  1  1  1 mag         0.0000000000
    0.5000000771     0.9999999956     0.9999969447 m  1  1  1 mag         0.0000000000
    0.5000000367     0.4999999741     0.9999969395 m  1  1  1 mag         0.0000000000
    0.3333332567     0.1666670701     0.3333364392 m  1  1  1 mag         0.0000000000
    0.3333332264     0.6666669954     0.3333364375 m  1  1  1 mag         0.0000000000
    0.8333332733     0.1666670166     0.3333364310 m  1  1  1 mag         0.0000000000
    0.8333333293     0.6666670996     0.3333364241 m  1  1  1 mag         0.0000000000
    0.1666663843     0.3333335022     0.6666671332 m  1  1  1 mag         0.0000000000
    0.1666663966     0.8333334873     0.6666671137 m  1  1  1 mag         0.0000000000
    0.6666664058     0.3333335014     0.6666671323 m  1  1  1 mag         0.0000000000
    0.6666663588     0.8333335429     0.6666671433 m  1  1  1 mag         0.0000000000

Fe #label
5 #magnetism
12 #number of atoms
    0.1666670821     0.3333328275     0.1666662780 m  1  1  1 mag         5.0000000000
    0.1666670889     0.8333328316     0.1666662840 m  1  1  1 mag         5.0000000000
    0.6666670808     0.3333328313     0.1666662948 m  1  1  1 mag         5.0000000000
    0.6666670799     0.8333328276     0.1666662821 m  1  1  1 mag         5.0000000000
    0.9999993099     0.0000003650     0.5000046465 m  1  1  1 mag         5.0000000000
    0.9999993084     0.5000003638     0.5000046374 m  1  1  1 mag         5.0000000000
    0.4999993138     0.0000003711     0.5000046371 m  1  1  1 mag         5.0000000000
    0.4999993205     0.5000003740     0.5000046510 m  1  1  1 mag         5.0000000000
    0.3333337001     0.1666666255     0.8333292386 m  1  1  1 mag         5.0000000000
    0.3333336990     0.6666666260     0.8333292468 m  1  1  1 mag         5.0000000000
    0.8333337045     0.1666666270     0.8333292439 m  1  1  1 mag         5.0000000000
    0.8333337006     0.6666666261     0.8333292343 m  1  1  1 mag         5.0000000000

O #label
0 #magnetism
24 #number of atoms
    0.0000008797     0.9999991968     0.2440070066 m  1  1  1 mag         0.0000000000
    0.0000008878     0.4999991914     0.2440070094 m  1  1  1 mag         0.0000000000
    0.5000008809     0.9999991910     0.2440070058 m  1  1  1 mag         0.0000000000
    0.5000008714     0.4999991975     0.2440070071 m  1  1  1 mag         0.0000000000
    0.3333332743     0.1666664748     0.0893249872 m  1  1  1 mag         0.0000000000
    0.3333332665     0.6666664703     0.0893249791 m  1  1  1 mag         0.0000000000
    0.8333332675     0.1666664764     0.0893249845 m  1  1  1 mag         0.0000000000
    0.8333332765     0.6666664721     0.0893249959 m  1  1  1 mag         0.0000000000
    0.3333331435     0.1666666824     0.5773448395 m  1  1  1 mag         0.0000000000
    0.3333331384     0.6666666947     0.5773448396 m  1  1  1 mag         0.0000000000
    0.8333331398     0.1666666879     0.5773448365 m  1  1  1 mag         0.0000000000
    0.8333331518     0.6666666844     0.5773448380 m  1  1  1 mag         0.0000000000
    0.1666654865     0.3333340530     0.4226652639 m  1  1  1 mag         0.0000000000
    0.1666654783     0.8333340559     0.4226652528 m  1  1  1 mag         0.0000000000
    0.6666654802     0.3333340605     0.4226652611 m  1  1  1 mag         0.0000000000
    0.6666654849     0.8333340581     0.4226652641 m  1  1  1 mag         0.0000000000
    0.1666675563     0.3333329193     0.9106683840 m  1  1  1 mag         0.0000000000
    0.1666675517     0.8333329258     0.9106683783 m  1  1  1 mag         0.0000000000
    0.6666675623     0.3333329290     0.9106683791 m  1  1  1 mag         0.0000000000
    0.6666675653     0.8333329265     0.9106683820 m  1  1  1 mag         0.0000000000
    0.9999998331     0.0000003181     0.7559888771 m  1  1  1 mag         0.0000000000
    0.9999998404     0.5000003114     0.7559888790 m  1  1  1 mag         0.0000000000
    0.4999998402     0.0000003163     0.7559888836 m  1  1  1 mag         0.0000000000
    0.4999998288     0.5000003146     0.7559888810 m  1  1  1 mag         0.0000000000
