LATTICE_CONSTANT
1.8897261246257702

LATTICE_VECTORS
5.527301802754711 -1.1879268616446207e-21 5.22686100612872e-22 
-2.7637342319995493 4.786735355087905 -6.731341314195095e-22 
-7.980673682697707e-05 0.00010589558563526751 13.121276137818427 

ATOMIC_POSITIONS
Cartesian    # Cartesian(Unit is LATTICE_CONSTANT)
Ni
0 
12
-0.000064422589 1.595613712032 2.181745608936 1 1 1
-1.381920714062 3.988989104070 2.181770255673 1 1 1
2.763584853031 1.595600323263 2.181777136041 1 1 1
1.381703769735 3.988987354075 2.181784463991 1 1 1
5.527257752233 0.000055392825 6.561873716348 1 1 1
4.145391734914 2.393421370580 6.561873867375 1 1 1
2.763606718923 0.000054191315 6.561876298361 1 1 1
1.381738637593 2.393421314406 6.561874041607 1 1 1
1.381775158658 0.797858083526 10.938208488976 1 1 1
-0.000094034914 3.191229019193 10.938207366097 1 1 1
4.145423490104 0.797858987463 10.938206135092 1 1 1
2.763558411694 3.191227565573 10.938209248618 1 1 1
O
0 
24
-0.000027887832 0.000035749854 3.124495723676 1 1 1
-1.381889385983 2.393394056481 3.124492961631 1 1 1
2.763615747549 0.000030360404 3.124509705823 1 1 1
1.381747469704 2.393390809457 3.124498379861 1 1 1
1.381775122836 0.797825254119 1.239344223421 1 1 1
-0.000097792907 3.191202942177 1.239348266009 1 1 1
4.145411460055 0.797822163958 1.239350604145 1 1 1
2.763547113317 3.191196354087 1.239358527079 1 1 1
1.381774328649 0.797838587385 7.504114760873 1 1 1
-0.000092415401 3.191206511482 7.504114583308 1 1 1
4.145425445437 0.797838334685 7.504114824540 1 1 1
2.763558152103 3.191206529471 7.504114796168 1 1 1
-0.000078466362 1.595637276642 5.619651832789 1 1 1
-1.381944684895 3.989005647014 5.619651536606 1 1 1
2.763572268901 1.595636118199 5.619651909943 1 1 1
1.381703942749 3.989005645722 5.619650753840 1 1 1
-0.000059435470 1.595644352747 11.880403522439 1 1 1
-1.381924790416 3.989012123141 11.880403095360 1 1 1
2.763592465528 1.595642960461 11.880402681452 1 1 1
1.381723546748 3.989012779410 11.880401531949 1 1 1
5.527257363977 0.000075905980 9.995872421441 1 1 1
4.145389792341 2.393443342417 9.995871987274 1 1 1
2.763604826650 0.000075541417 9.995872898488 1 1 1
1.381738166777 2.393442481643 9.995872745384 1 1 1

ATOMIC_SPECIES
Ni 58.693 Ni_ONCV_PBE-1.0.upf
O 15.999 O_ONCV_PBE-1.0.upf

NUMERICAL_ORBITAL
Ni_gga_8au_100Ry_4s2p2d1f.orb
O_gga_7au_100Ry_2s2p1d.orb
