ATOMIC_SPECIES
Ni 58.693 Ni_ONCV_PBE-1.0.upf upf201
O 15.999 O_ONCV_PBE-1.0.upf upf201

NUMERICAL_ORBITAL
Ni_gga_8au_100Ry_4s2p2d1f.orb
O_gga_7au_100Ry_2s2p1d.orb

LATTICE_CONSTANT
1.88972612463

LATTICE_VECTORS
    5.6346668421     0.0000485340     0.0000211471 #latvec1
   -2.8173763391     4.8797410375    -0.0000146998 #latvec2
   -0.0000215395     0.0000917259    14.5456841693 #latvec3

ATOMIC_POSITIONS
Direct

Ni #label
1 #magnetism
12 #number of atoms
    0.1666520325     0.3333357649     0.1673789984 m  1  1  1 mag         1.0000000000
    0.1665877404     0.8333015532     0.1673699999 m  1  1  1 mag         1.0000000000
    0.6667031788     0.3334085329     0.1673688147 m  1  1  1 mag         1.0000000000
    0.6667018057     0.8333114093     0.1673685902 m  1  1  1 mag         1.0000000000
    0.9999909575     0.0000039671     0.5000266906 m  1  1  1 mag         1.0000000000
    0.0000013565     0.4999945175     0.5000280165 m  1  1  1 mag         1.0000000000
    0.5000059855     0.9999963500     0.5000275485 m  1  1  1 mag         1.0000000000
    0.4999962150     0.5000070717     0.5000263989 m  1  1  1 mag         1.0000000000
    0.3333440805     0.1666585318     0.8326020174 m  1  1  1 mag         1.0000000000
    0.3333374217     0.6666624582     0.8326011261 m  1  1  1 mag         1.0000000000
    0.8333372397     0.1666637341     0.8326013180 m  1  1  1 mag         1.0000000000
    0.8333420781     0.6666561593     0.8326018957 m  1  1  1 mag         1.0000000000

O #label
0 #magnetism
24 #number of atoms
    0.9999938458     0.0000058148     0.2331286608 m  1  1  1 mag         0.0000000000
    0.9999938901     0.5000044930     0.2331285120 m  1  1  1 mag         0.0000000000
    0.4999932149     0.0000047550     0.2331391111 m  1  1  1 mag         0.0000000000
    0.4999922970     0.5000044176     0.2331298035 m  1  1  1 mag         0.0000000000
    0.3333310683     0.1666722283     0.1016765675 m  1  1  1 mag         0.0000000000
    0.3333310623     0.6666775410     0.1016766637 m  1  1  1 mag         0.0000000000
    0.8333249216     0.1666718261     0.1016775533 m  1  1  1 mag         0.0000000000
    0.8333284570     0.6666735823     0.1016838136 m  1  1  1 mag         0.0000000000
    0.3333311741     0.1666656049     0.5657732868 m  1  1  1 mag         0.0000000000
    0.3333305482     0.6666664376     0.5657719368 m  1  1  1 mag         0.0000000000
    0.8333305488     0.1666663329     0.5657716706 m  1  1  1 mag         0.0000000000
    0.8333313054     0.6666657828     0.5657729934 m  1  1  1 mag         0.0000000000
    0.1666667267     0.3333347337     0.4342798491 m  1  1  1 mag         0.0000000000
    0.1666661125     0.8333353084     0.4342784809 m  1  1  1 mag         0.0000000000
    0.6666659434     0.3333352421     0.4342787656 m  1  1  1 mag         0.0000000000
    0.6666665303     0.8333346182     0.4342801708 m  1  1  1 mag         0.0000000000
    0.1666726036     0.3333255105     0.8982940760 m  1  1  1 mag         0.0000000000
    0.1666722125     0.8333258725     0.8982933842 m  1  1  1 mag         0.0000000000
    0.6666724007     0.3333259808     0.8982932106 m  1  1  1 mag         0.0000000000
    0.6666727746     0.8333255797     0.8982939744 m  1  1  1 mag         0.0000000000
    0.0000081641     0.9999950310     0.7668435241 m  1  1  1 mag         0.0000000000
    0.0000083761     0.4999944826     0.7668444112 m  1  1  1 mag         0.0000000000
    0.5000081289     0.9999945241     0.7668444727 m  1  1  1 mag         0.0000000000
    0.5000076913     0.4999946263     0.7668437249 m  1  1  1 mag         0.0000000000
