ATOMIC_SPECIES
U 238.028900 U-5spdf.upf
C 12.010700 C_ONCV_PBE-1.0.upf

LATTICE_CONSTANT
1.000000

LATTICE_VECTORS
    6.59709023392     0.00000000000     0.00000000000
    3.29854511696     5.71324773363     0.00000000000
    3.29854511696     1.90441591121     5.38650162007

ATOMIC_POSITIONS
Cartesian

U
0.000000
1
    0.00000000000     0.00000000000     0.00000000000 

C
0.000000
1
    6.59709023392     3.80883182242     2.69325081003 
