INPUT_PARAMETERS
suffix    abacus
ntype    3

calculation    scf
ecutwfc    100
scf_thr    1.0e-6
scf_nmax    200

smearing_method  gaussian
smearing_sigma 0.0037

mixing_type    pulay
mixing_beta 0.2
mixing_gg0 1.5

ks_solver    genelpa
basis_type    lcao
gamma_only    0
symmetry    0
nspin 2

#Parameter DFT+U
dft_plus_u    1
orbital_corr   -1  2 -1
hubbard_u      0 3.4  0 

nupdown  6

#out_chg 1
#init_chg file
out_mul 1
out_bandgap 1
