ATOMIC_SPECIES
Li 6.941 Li_ONCV_PBE-1.0.upf upf201
Co 58.933 Co_ONCV_PBE-1.0.upf upf201
O 15.999 O_ONCV_PBE-1.0.upf upf201

NUMERICAL_ORBITAL
Li_gga_7au_100Ry_4s1p.orb
Co_gga_8au_100Ry_4s2p2d1f.orb
O_gga_7au_100Ry_2s2p1d.orb

LATTICE_CONSTANT
1.88972612463

LATTICE_VECTORS
    5.6728887044     0.0105330916    -0.0359566698 #latvec1
   -2.8100019696     4.9280454301     0.0358705526 #latvec2
   -0.4189754753     0.2432660154    14.6667857359 #latvec3

ATOMIC_POSITIONS
Direct

Li #label
0 #magnetism
6 #number of atoms
    0.9999977821     0.4999967218     0.9999975630 m  1  1  1 mag         0.0000000000
    0.4999977028     0.9999973871     0.9999975952 m  1  1  1 mag         0.0000000000
    0.3328548463     0.1671554808     0.3333298321 m  1  1  1 mag         0.0000000000
    0.8328552315     0.6671557447     0.3333298265 m  1  1  1 mag         0.0000000000
    0.1671518353     0.3328440218     0.6666716240 m  1  1  1 mag         0.0000000000
    0.6671521223     0.8328435563     0.6666715972 m  1  1  1 mag         0.0000000000

Co #label
1 #magnetism
12 #number of atoms
    0.1657687916     0.3342354810     0.1667054504 m  1  1  1 mag         1.0000000000
    0.1657496869     0.8342603233     0.1666053928 m  1  1  1 mag         1.0000000000
    0.6657533601     0.3342570928     0.1666045411 m  1  1  1 mag         1.0000000000
    0.6657744857     0.8342410699     0.1667054379 m  1  1  1 mag         1.0000000000
    0.5000104616     0.4999982333     0.5000040101 m  1  1  1 mag         1.0000000000
    0.5000094952     0.9999982140     0.5000029033 m  1  1  1 mag         1.0000000000
    0.0000108965     0.4999994762     0.5000028832 m  1  1  1 mag         1.0000000000
    0.0000115729     0.9999977526     0.5000037968 m  1  1  1 mag         1.0000000000
    0.3342179760     0.1657638939     0.8332910625 m  1  1  1 mag         1.0000000000
    0.3342350384     0.6657433425     0.8333899552 m  1  1  1 mag         1.0000000000
    0.8342366979     0.1657460266     0.8333900957 m  1  1  1 mag         1.0000000000
    0.8342176180     0.6657625530     0.8332909543 m  1  1  1 mag         1.0000000000

O #label
0 #magnetism
24 #number of atoms
    0.0063199489     0.9936875090     0.2359430201 m  1  1  1 mag         0.0000000000
    0.9998927445     0.5001143979     0.2337807593 m  1  1  1 mag         0.0000000000
    0.4998924891     0.0001141315     0.2337807713 m  1  1  1 mag         0.0000000000
    0.5063192851     0.4936881476     0.2359435944 m  1  1  1 mag         0.0000000000
    0.3314388280     0.1685755218     0.0994933441 m  1  1  1 mag         0.0000000000
    0.3253130642     0.6746987855     0.0974134426 m  1  1  1 mag         0.0000000000
    0.8253124275     0.1746993826     0.0974139853 m  1  1  1 mag         0.0000000000
    0.8314385836     0.6685752695     0.0994933624 m  1  1  1 mag         0.0000000000
    0.3341392775     0.1658670987     0.5671692406 m  1  1  1 mag         0.0000000000
    0.3405359074     0.6594701722     0.5692620270 m  1  1  1 mag         0.0000000000
    0.8405357372     0.1594702859     0.5692621610 m  1  1  1 mag         0.0000000000
    0.8341392213     0.6658670278     0.5671692655 m  1  1  1 mag         0.0000000000
    0.1658837261     0.3341281558     0.4328379341 m  1  1  1 mag         0.0000000000
    0.1594838913     0.8405277974     0.4307436324 m  1  1  1 mag         0.0000000000
    0.6594840424     0.3405276909     0.4307434746 m  1  1  1 mag         0.0000000000
    0.6658837437     0.8341281848     0.4328379144 m  1  1  1 mag         0.0000000000
    0.1685481719     0.3314274414     0.9005017484 m  1  1  1 mag         0.0000000000
    0.1746764342     0.8253028153     0.9025822065 m  1  1  1 mag         0.0000000000
    0.6746763105     0.3253025373     0.9025820929 m  1  1  1 mag         0.0000000000
    0.6685482271     0.8314273869     0.9005019158 m  1  1  1 mag         0.0000000000
    0.9936703676     0.0063134214     0.7640532515 m  1  1  1 mag         0.0000000000
    0.0000961291     0.4998885210     0.7662153978 m  1  1  1 mag         0.0000000000
    0.5000960487     0.9998885574     0.7662152245 m  1  1  1 mag         0.0000000000
    0.4936704837     0.5063137079     0.7640533402 m  1  1  1 mag         0.0000000000
