ATOMIC_SPECIES
Cs 132.905500 Cs.upf
U 238.028900 U-5spdf.upf
O 15.999400 O.upf

LATTICE_CONSTANT
1.000000

LATTICE_VECTORS
   15.65201384651     0.00000000000     0.00000000000
   11.18272834420    10.95135262108     0.00000000000
  -13.41737109542    -5.47567631056     5.91410680333

ATOMIC_POSITIONS
Cartesian

Cs
0.000000
2
    9.28162746367     3.78786479593     0.00000000000 
   17.55311472705     7.16348782515     0.00000000000 

U
0.000000
1
    0.00000000000     0.00000000000     0.00000000000 

O
0.000000
4
   23.42638108084     9.56038847062     0.00000000000 
    3.40836110987     1.39096415046     0.00000000000 
    1.11732137555    -2.73783815528     2.95705340167 
   -1.11732137561     2.73783815526     2.95705340167 
