ATOMIC_SPECIES
Y 88.905900 Y.upf
Be 9.012200 Be_ONCV_PBE-1.0.upf

LATTICE_CONSTANT
1.889726

LATTICE_VECTORS
    7.20184863000     0.00000000000     0.00000000000
    3.60092431500     6.23698386800     0.00000000000
    3.60092431500     2.07899462300     5.88028478300

ATOMIC_POSITIONS
Cartesian

Y
0.000000
2
   10.80277000000     6.23698000000     4.41021000000 1 1 1 
    3.60092000000     2.07899000000     1.47007000000 1 1 1 

Be
0.000000
26
    7.20185000000     4.15799000000     2.94014000000 1 1 1 
    0.00000000000     0.00000000000     0.00000000000 1 1 1 
    7.65541000000     5.36587000000     1.23194000000 1 1 1 
    6.74829000000     2.95011000000     4.64835000000 1 1 1 
    9.29396000000     4.41985000000     2.56981000000 1 1 1 
    5.10973000000     3.89613000000     3.31047000000 1 1 1 
   10.34921000000     3.28688000000     4.17208000000 1 1 1 
    4.05448000000     5.02910000000     1.70821000000 1 1 1 
    5.69304000000     5.97512000000     0.37033000000 1 1 1 
    8.71066000000     2.34086000000     5.50996000000 1 1 1 
    8.47469000000     4.36914000000     4.64835000000 1 1 1 
    5.92901000000     3.94684000000     1.23194000000 1 1 1 
    8.47469000000     2.47710000000     3.31047000000 1 1 1 
    5.92901000000     5.83888000000     2.56981000000 1 1 1 
    8.02113000000     0.99673000000     1.70821000000 1 1 1 
    6.38257000000     7.31924000000     4.17208000000 1 1 1 
    8.02113000000     6.37322000000     5.50996000000 1 1 1 
    6.38257000000     1.94276000000     0.37033000000 1 1 1 
    6.38257000000     2.21523000000     2.56981000000 1 1 1 
    8.02113000000     6.10075000000     3.31047000000 1 1 1 
    8.02113000000     3.16125000000     1.23194000000 1 1 1 
    6.38257000000     5.15472000000     4.64835000000 1 1 1 
    9.52994000000     4.55609000000     0.37033000000 1 1 1 
    4.87376000000     3.75989000000     5.50996000000 1 1 1 
    4.87376000000     1.86785000000     4.17208000000 1 1 1 
    9.52994000000     6.44813000000     1.70821000000 1 1 1 
