Sn1
1.0
  -2.3383419999999999   -1.7265390000000000    1.7755470000000000
  -2.3383419999999999    1.7265390000000000   -1.7755470000000000
   2.3383419999999999   -1.7265390000000000   -1.7755470000000000
Sn
1
direct
   0.0000000000000000    0.0000000000000000    0.0000000000000000 Sn
