ATOMIC_SPECIES
Nd 144.240000 Nd.upf
Zn 65.390000 Zn_ONCV_PBE-1.0.upf
Pd 106.420000 Pd_ONCV_PBE-1.0.upf

LATTICE_CONSTANT
1.889726

LATTICE_VECTORS
    8.40746469200     0.00000000000     0.00000000000
   -2.80248823100     7.92663372600     0.00000000000
   -2.80248823100    -3.96331686300     6.86466617300

ATOMIC_POSITIONS
Cartesian

Nd
0.000000
6
   -3.90788000000     2.76329000000     4.78616000000 1 1 1 
    3.90788000000     5.52658000000     0.00000000000 1 1 1 
    1.10539000000     5.16335000000     4.78616000000 1 1 1 
   -1.69710000000     1.20003000000     2.07851000000 1 1 1 
    1.69710000000     2.40006000000     0.00000000000 1 1 1 
    1.69710000000    -1.20003000000     2.07851000000 1 1 1 

Zn
0.000000
4
    1.40124000000     1.98166000000     3.43233000000 1 1 1 
    7.00622000000     3.96332000000     0.00000000000 1 1 1 
    4.20373000000     5.94498000000     3.43233000000 1 1 1 
    1.40124000000     7.92663000000     0.00000000000 1 1 1 

Pd
0.000000
13
   -0.90893000000     2.65113000000     4.59190000000 1 1 1 
    2.80249000000     3.96332000000     2.31913000000 1 1 1 
    2.80249000000     0.02677000000     4.59190000000 1 1 1 
   -2.80249000000    -0.02677000000     4.59190000000 1 1 1 
    4.69605000000     2.62437000000     0.00000000000 1 1 1 
    0.00000000000     3.93655000000     2.27277000000 1 1 1 
    5.60498000000     3.99009000000     2.27277000000 1 1 1 
    0.00000000000     0.00000000000     4.54553000000 1 1 1 
    1.89356000000     6.61445000000     2.27277000000 1 1 1 
    3.71141000000     1.31218000000     2.27277000000 1 1 1 
    0.90893000000     5.30227000000     0.00000000000 1 1 1 
   -1.89356000000     5.27550000000     4.59190000000 1 1 1 
    0.00000000000     0.00000000000     0.00000000000 1 1 1 
