Be4
1.0
   3.5741024600000002    0.0000000000000000    0.0000000000000000
   0.0000000000000000    3.9200128500000000    0.0000000000000000
   0.0000000000000000    0.0000000000000000    2.2694627399999998
Be
4
direct
   0.7500084600000000    0.3330479200000000    0.2498215600000000 Be
   0.2499915400000000    0.6669520799999999    0.2498215600000000 Be
   0.2500084600000000    0.1669520800000000    0.7501784400000000 Be
   0.7499915400000000    0.8330479200000001    0.7501784400000000 Be
