ATOMIC_SPECIES
Li	1	Li_ONCV_PBE-1.0.upf
F	1	F_ONCV_PBE-1.0.upf

NUMERICAL_ORBITAL
Li_gga_7au_100Ry_4s1p.orb
F_gga_7au_100Ry_2s2p1d.orb

LATTICE_CONSTANT
1.889766

LATTICE_VECTORS
0.0	2.005001	2.005001
2.005001	0.0	2.005001
2.005001	2.005001	0.0

ATOMIC_POSITIONS
Direct

Li
0.0
1
0.0	0.0	0.0	1 1 1

F
0.0
1
0.5	0.5	0.5	1 1 1
