ATOMIC_SPECIES
Li 6.941 Li_ONCV_PBE-1.0.upf upf201
Ni 58.693 Ni_ONCV_PBE-1.0.upf upf201
O 15.999 O_ONCV_PBE-1.0.upf upf201

NUMERICAL_ORBITAL
Li_gga_7au_100Ry_4s1p.orb
Ni_gga_8au_100Ry_4s2p2d1f.orb
O_gga_7au_100Ry_2s2p1d.orb

LATTICE_CONSTANT
1.88972612463

LATTICE_VECTORS
   10.4945759360     0.0000012346    -0.0116856280 #latvec1
   -0.0000007494     5.6476152704     0.0000030950 #latvec2
   -3.9587221619    -0.0000061076     9.5649400513 #latvec3

ATOMIC_POSITIONS
Direct

Li #label
0 #magnetism
16 #number of atoms
    0.2500309429     0.0000000098     0.2500060318 m  1  1  1 mag         0.0000000000
    0.2500119953     0.9999999863     0.7499871440 m  1  1  1 mag         0.0000000000
    0.2500308548     0.4999999946     0.2500061535 m  1  1  1 mag         0.0000000000
    0.2500120384     0.4999999975     0.7499870272 m  1  1  1 mag         0.0000000000
    0.7500181815     0.9999999996     0.2500128869 m  1  1  1 mag         0.0000000000
    0.7500022167     0.0000000196     0.7499952144 m  1  1  1 mag         0.0000000000
    0.7500180923     0.5000000113     0.2500130394 m  1  1  1 mag         0.0000000000
    0.7500022874     0.5000000156     0.7499950731 m  1  1  1 mag         0.0000000000
    0.0000839120     0.2499999840     0.2499466534 m  1  1  1 mag         0.0000000000
    0.9999484529     0.2500000118     0.7500564814 m  1  1  1 mag         0.0000000000
    0.0000840313     0.7500000006     0.2499464227 m  1  1  1 mag         0.0000000000
    0.9999483196     0.7499999968     0.7500567103 m  1  1  1 mag         0.0000000000
    0.4999519674     0.2500000040     0.2500703481 m  1  1  1 mag         0.0000000000
    0.5000811452     0.2499999938     0.7499286728 m  1  1  1 mag         0.0000000000
    0.4999520954     0.7499999828     0.2500700992 m  1  1  1 mag         0.0000000000
    0.5000810003     0.7499999988     0.7499289208 m  1  1  1 mag         0.0000000000

Ni #label
1 #magnetism
16 #number of atoms
    0.2500393821     0.2499999693     0.0002685791 m  1  1  1 mag         1.0000000000
    0.2501319138     0.2500046386     0.4998234774 m  1  1  1 mag         1.0000000000
    0.2500394896     0.7500000998     0.0002685716 m  1  1  1 mag         1.0000000000
    0.2501319511     0.7499952782     0.4998234674 m  1  1  1 mag         1.0000000000
    0.7499506008     0.2499950681     0.9997228419 m  1  1  1 mag         1.0000000000
    0.7498183461     0.2500004562     0.5001272194 m  1  1  1 mag         1.0000000000
    0.7499504999     0.7500050006     0.9997228360 m  1  1  1 mag         1.0000000000
    0.7498183098     0.7499994679     0.5001272238 m  1  1  1 mag         1.0000000000
    0.9999907437     0.9999959413     0.9999907873 m  1  1  1 mag         1.0000000000
    0.9999708444     0.0000047866     0.4999776388 m  1  1  1 mag         1.0000000000
    0.9999912008     0.5000041271     0.9999907818 m  1  1  1 mag         1.0000000000
    0.9999712325     0.4999951172     0.4999776348 m  1  1  1 mag         1.0000000000
    0.5000006500     0.9999948814     0.0000014891 m  1  1  1 mag         1.0000000000
    0.4999741393     0.0000042790     0.4999715421 m  1  1  1 mag         1.0000000000
    0.5000001895     0.5000051869     0.0000015106 m  1  1  1 mag         1.0000000000
    0.4999737445     0.4999956506     0.4999715541 m  1  1  1 mag         1.0000000000

O #label
0 #magnetism
32 #number of atoms
    0.1103277806     0.2500000779     0.1147647470 m  1  1  1 mag         0.0000000000
    0.1105175832     0.2499998082     0.6143476163 m  1  1  1 mag         0.0000000000
    0.1103269998     0.7500000130     0.1147638703 m  1  1  1 mag         0.0000000000
    0.1105185060     0.7500001201     0.6143486515 m  1  1  1 mag         0.0000000000
    0.6107487859     0.2500002015     0.1146493410 m  1  1  1 mag         0.0000000000
    0.6106153821     0.2499999464     0.6145213825 m  1  1  1 mag         0.0000000000
    0.6107477765     0.7499998941     0.1146482247 m  1  1  1 mag         0.0000000000
    0.6106162152     0.7500000093     0.6145223053 m  1  1  1 mag         0.0000000000
    0.3893920308     0.2499997964     0.3855009189 m  1  1  1 mag         0.0000000000
    0.3892431761     0.2500000508     0.8853511704 m  1  1  1 mag         0.0000000000
    0.3893912027     0.7500001087     0.3855000031 m  1  1  1 mag         0.0000000000
    0.3892441857     0.7499999918     0.8853522897 m  1  1  1 mag         0.0000000000
    0.8894775063     0.2499999027     0.3856830465 m  1  1  1 mag         0.0000000000
    0.8896730051     0.2500001776     0.8852407804 m  1  1  1 mag         0.0000000000
    0.8894765984     0.7499999718     0.3856820194 m  1  1  1 mag         0.0000000000
    0.8896737780     0.7499998692     0.8852416578 m  1  1  1 mag         0.0000000000
    0.3604340396     0.0000002269     0.1150705410 m  1  1  1 mag         0.0000000000
    0.3607956763     0.9999998143     0.6142657841 m  1  1  1 mag         0.0000000000
    0.3604340687     0.4999998682     0.1150705559 m  1  1  1 mag         0.0000000000
    0.3607948327     0.5000001246     0.6142647951 m  1  1  1 mag         0.0000000000
    0.8605330215     0.0000002087     0.1144899376 m  1  1  1 mag         0.0000000000
    0.8603802672     0.9999997933     0.6146931725 m  1  1  1 mag         0.0000000000
    0.8605339784     0.4999998802     0.1144910003 m  1  1  1 mag         0.0000000000
    0.8603801459     0.5000001539     0.6146930543 m  1  1  1 mag         0.0000000000
    0.1396218317     0.9999997707     0.3853319278 m  1  1  1 mag         0.0000000000
    0.1394659404     0.0000001835     0.8855138291 m  1  1  1 mag         0.0000000000
    0.1396227236     0.5000001215     0.3853329203 m  1  1  1 mag         0.0000000000
    0.1394659102     0.4999998584     0.8855138168 m  1  1  1 mag         0.0000000000
    0.6392067704     0.9999997960     0.3857558854 m  1  1  1 mag         0.0000000000
    0.6395617010     0.0000002039     0.8849332881 m  1  1  1 mag         0.0000000000
    0.6392068845     0.5000001007     0.3857559973 m  1  1  1 mag         0.0000000000
    0.6395608121     0.4999998437     0.8849322114 m  1  1  1 mag         0.0000000000
