ATOMIC_SPECIES
Gd 157.250000 Gd3+_f--core-icmod1.PD04.PBE.UPF
Al 26.981500 Al.PD04.PBE.upf
Cu 63.546000 Cu.upf

LATTICE_CONSTANT
1.889726

LATTICE_VECTORS
    4.15469599900     0.00000000000     0.00000000000
   -0.00000000100     4.15469599900     0.00000000000
   -2.07734799900    -2.07734800000     5.30533399900

ATOMIC_POSITIONS
Cartesian

Gd
0.000000
1
    0.00000000000     0.00000000000     0.00046000000 1 1 1 

Al
0.000000
3
    0.00000000000     0.00000000000     4.32705000000 1 1 1 
    0.00000000000     2.07735000000     2.64776000000 1 1 1 
    2.07735000000     0.00000000000     2.64776000000 1 1 1 

Cu
0.000000
1
    2.07735000000     2.07735000000     1.36960000000 1 1 1 
