ATOMIC_SPECIES
Ga 69.723 Ga.upf
N 14.007 N_ONCV_PBE-1.0.upf

NUMERICAL_ORBITAL
Ga_gga_8au_100Ry_2s2p2d1f.orb
N_gga_7au_100Ry_2s2p1d.orb

LATTICE_CONSTANT
1.889716

LATTICE_VECTORS
    3.18893     0.00000     0.00000
   -1.59447     2.76169     0.00000
    0.00000     0.00000     5.19236

ATOMIC_POSITIONS
Direct

Ga
0.0
2
  0.3333333   0.6666667   0.9990837 1 1 1
  0.6666666   0.3333333   0.4990837 1 1 1

N
0.0
2
  0.3333333   0.6666667   0.3759163 1 1 1
  0.6666666   0.3333333   0.8759163 1 1 1

