INPUT_PARAMETERS
calculation	scf
symmetry	1
ecutwfc	100
scf_thr	1e-07
scf_nmax	100
basis_type	lcao
smearing_method	gauss
smearing_sigma	0.002
kspacing	0.08
cal_stress	1
cal_force	1
dft_functional	hse
lcao_ecut	2000
