ATOMIC_SPECIES
Ga	1	Ga.upf
As	1	As_ONCV_PBE-1.0.upf

NUMERICAL_ORBITAL
Ga_gga_8au_100Ry_2s2p2d1f.orb
As_gga_7au_100Ry_2s2p1d.orb

LATTICE_CONSTANT
1.889766

LATTICE_VECTORS
0.0	2.825179	2.825179
2.825179	0.0	2.825179
2.825179	2.825179	0.0

ATOMIC_POSITIONS
Direct

Ga
0.0
1
0.0	0.0	0.0	1 1 1

As
0.0
1
0.25	0.25	0.25	1 1 1
