ATOMIC_SPECIES
Zn 65.390 Zn_ONCV_PBE-1.0.upf
S 32.065 S_ONCV_PBE-1.0.upf

NUMERICAL_ORBITAL
Zn_gga_8au_100Ry_4s2p2d1f.orb
S_gga_7au_100Ry_2s2p1d.orb

LATTICE_CONSTANT
1.889716

LATTICE_VECTORS
    0.00000     2.69368     2.69368
    2.69368     0.00000     2.69368
    2.69368     2.69368     0.00000

ATOMIC_POSITIONS
Direct

Zn
0.0
1
  0.0000000   0.0000000   0.0000000 1 1 1

S
0.0
1
  0.2500000   0.2500000   0.2500000 1 1 1

