ATOMIC_SPECIES
Yb 173.040000 Yb3+_f--core-icmod1.PD04.PBE.UPF
Ga 69.723000 Ga-low.PD04.PBE.UPF

LATTICE_CONSTANT
1.000000

LATTICE_VECTORS
    8.42989390208     0.00000000000     0.00000000000
   -4.21494837430     7.30050144870     0.00000000000
    0.00000000000     0.00000000000    13.56994177727

ATOMIC_POSITIONS
Cartesian

Yb
0.000000
2
    0.00000000000     0.00000000000    10.17745633295 
    0.00000000000     0.00000000000     3.39248544432 

Ga
0.000000
4
   -0.00000516379     4.86700339930     0.61523402030 
    4.21495069157     2.43349804940     7.40020490893 
   -0.00000516379     4.86700339930     6.16973686834 
    4.21495069157     2.43349804940    12.95470775697 
