ATOMIC_SPECIES
Sc 44.955900 Sc_ONCV_PBE-1.0.upf
Re 186.207000 Re.upf
Ge 72.640000 Ge-low.PD04.PBE.UPF

LATTICE_CONSTANT
1.889726

LATTICE_VECTORS
    8.39174000000     0.00000000000     0.00000000000
    0.00000000000     9.44665600000     0.00000000000
    0.00000000000     0.00000000000    10.21388700000

ATOMIC_POSITIONS
Cartesian

Sc
0.000000
12
    2.03436000000     7.83089000000     4.62163000000 1 1 1 
    2.03436000000     1.61577000000     5.59226000000 1 1 1 
    6.35738000000     3.10756000000     0.48531000000 1 1 1 
    6.35738000000     6.33909000000     9.72857000000 1 1 1 
    6.35738000000     1.61577000000     5.59226000000 1 1 1 
    6.35738000000     7.83089000000     4.62163000000 1 1 1 
    2.03436000000     6.33909000000     9.72857000000 1 1 1 
    2.03436000000     3.10756000000     0.48531000000 1 1 1 
    0.00000000000     7.87809000000     1.81408000000 1 1 1 
    0.00000000000     1.56857000000     8.39981000000 1 1 1 
    0.00000000000     3.15476000000     3.29287000000 1 1 1 
    0.00000000000     6.29190000000     6.92102000000 1 1 1 

Re
0.000000
12
    2.08807000000     5.48574000000     2.51928000000 1 1 1 
    2.08807000000     3.96092000000     7.69461000000 1 1 1 
    6.30367000000     0.76241000000     2.58767000000 1 1 1 
    6.30367000000     8.68424000000     7.62622000000 1 1 1 
    6.30367000000     3.96092000000     7.69461000000 1 1 1 
    6.30367000000     5.48574000000     2.51928000000 1 1 1 
    2.08807000000     8.68424000000     7.62622000000 1 1 1 
    2.08807000000     0.76241000000     2.58767000000 1 1 1 
    2.03809000000     4.72333000000     5.10694000000 1 1 1 
    6.35365000000     0.00000000000     0.00000000000 1 1 1 
    6.35365000000     4.72333000000     5.10694000000 1 1 1 
    2.03809000000     0.00000000000     0.00000000000 1 1 1 

Ge
0.000000
24
    2.91756000000     7.84032000000     1.85679000000 1 1 1 
    2.91756000000     1.60634000000     8.35709000000 1 1 1 
    5.47418000000     3.11699000000     3.25015000000 1 1 1 
    5.47418000000     6.32967000000     6.96374000000 1 1 1 
    5.47418000000     1.60634000000     8.35709000000 1 1 1 
    5.47418000000     7.84032000000     1.85679000000 1 1 1 
    2.91756000000     6.32967000000     6.96374000000 1 1 1 
    2.91756000000     3.11699000000     3.25015000000 1 1 1 
    4.19587000000     5.09284000000     1.21204000000 1 1 1 
    4.19587000000     4.35381000000     9.00185000000 1 1 1 
    4.19587000000     0.36952000000     3.89490000000 1 1 1 
    4.19587000000     9.07714000000     6.31898000000 1 1 1 
    0.00000000000     5.10977000000     1.20718000000 1 1 1 
    0.00000000000     4.33688000000     9.00671000000 1 1 1 
    0.00000000000     0.38644000000     3.89976000000 1 1 1 
    0.00000000000     9.06021000000     6.31412000000 1 1 1 
    4.19587000000     5.97799000000     4.16910000000 1 1 1 
    4.19587000000     3.46867000000     6.04478000000 1 1 1 
    4.19587000000     1.25466000000     0.93784000000 1 1 1 
    4.19587000000     8.19200000000     9.27605000000 1 1 1 
    0.00000000000     6.03929000000     4.08876000000 1 1 1 
    0.00000000000     3.40736000000     6.12513000000 1 1 1 
    0.00000000000     1.31597000000     1.01818000000 1 1 1 
    0.00000000000     8.13069000000     9.19571000000 1 1 1 
