ATOMIC_SPECIES
C	1	C_ONCV_PBE-1.0.upf

NUMERICAL_ORBITAL
C_gga_7au_100Ry_2s2p1d.orb

LATTICE_CONSTANT
1.889766

LATTICE_VECTORS
0.0	1.783501	1.783501
1.783501	0.0	1.783501
1.783501	1.783501	0.0

ATOMIC_POSITIONS
Direct

C
0.0
2
0.125	0.125	0.125	1 1 1
0.875	0.875	0.875	1 1 1
