In1
1.0
  -1.6297352700000001    1.6297352700000001    2.4928993500000001
   1.6297352700000001   -1.6297352700000001    2.4928993500000001
   1.6297352700000001    1.6297352700000001   -2.4928993500000001
In
1
direct
  -0.0000000000000000   -0.0000000000000000    0.0000000000000000 In
