INPUT_PARAMETERS
#Parameters (1.General)
suffix				autotest
calculation     	relax
ntype				2
symmetry			-1
nspin				1

#Parameters (2.PW)
ecutwfc				100
scf_thr				1E-8

#Parameters (4.Relaxation)
scf_nmax			100
relax_nmax			20

#Parameters (5.LCAO)
basis_type			lcao
gamma_only			1

#Parameters (6.Smearing)
smearing_method		gaussian
smearing_sigma		0.02

#Parameters (7.Charge Mixing)
mixing_type			pulay
mixing_beta			0.4

#Parameters (14.exx)
dft_functional		hse
exx_pca_threshold	1E-4
exx_ccp_rmesh_times	1
exx_separate_loop	1
exx_hybrid_step		10
