ATOMIC_SPECIES
Cd	1	Cd_ONCV_PBE-1.0.upf
Se	1	Se_ONCV_PBE-1.0.upf

NUMERICAL_ORBITAL
Cd_gga_7au_100Ry_4s2p2d1f.orb
Se_gga_8au_100Ry_2s2p1d.orb

LATTICE_CONSTANT
1.889766

LATTICE_VECTORS
4.3	0.0	0.0
-2.15	3.723909	0.0
0.0	0.0	7.01

ATOMIC_POSITIONS
Direct

Cd
0.0
2
0.333333	0.666667	0.5	1 1 1
0.666667	0.333333	0.0	1 1 1

Se
0.0
2
0.333333	0.666667	0.876	1 1 1
0.666667	0.333333	0.376	1 1 1
