ATOMIC_SPECIES
Dy 162.500000 Dy3+_f--core-icmod1.PD04.PBE.UPF
Cu 63.546000 Cu.upf

LATTICE_CONSTANT
1.889726

LATTICE_VECTORS
    8.58300212000     0.00000000000     0.00000000000
    4.29150106000     7.43309787700     0.00000000000
    4.29150106000     2.47769929200     7.00799188500

ATOMIC_POSITIONS
Cartesian

Dy
0.000000
6
   10.41787000000     6.01476000000     2.00583000000 1 1 1 
    8.58300000000     7.07412000000     5.00216000000 1 1 1 
    6.74814000000     6.01476000000     2.00583000000 1 1 1 
    6.74814000000     3.89604000000     5.00216000000 1 1 1 
    8.58300000000     2.83668000000     2.00583000000 1 1 1 
   10.41787000000     3.89604000000     5.00216000000 1 1 1 

Cu
0.000000
23
    0.00000000000     0.00000000000     0.00000000000 1 1 1 
    6.43725000000     3.71655000000     0.00000000000 1 1 1 
    4.29150000000     4.95540000000     3.50400000000 1 1 1 
    2.14575000000     3.71655000000     0.00000000000 1 1 1 
    2.14575000000     1.23885000000     3.50400000000 1 1 1 
    4.29150000000     0.00000000000     0.00000000000 1 1 1 
    6.43725000000     1.23885000000     3.50400000000 1 1 1 
    4.29150000000     5.02133000000     0.85269000000 1 1 1 
    2.08865000000     1.20589000000     0.85269000000 1 1 1 
    4.29150000000     2.47770000000     4.44993000000 1 1 1 
    6.49435000000     1.20589000000     0.85269000000 1 1 1 
   12.87451000000     4.88946000000     6.15530000000 1 1 1 
   15.07736000000     8.70491000000     6.15530000000 1 1 1 
   12.87451000000     7.43310000000     2.55806000000 1 1 1 
   10.67166000000     8.70491000000     6.15530000000 1 1 1 
    4.29150000000     0.94807000000     2.29280000000 1 1 1 
    5.61620000000     3.24252000000     2.29280000000 1 1 1 
    4.29150000000     2.47770000000     0.12958000000 1 1 1 
    2.96680000000     3.24252000000     2.29280000000 1 1 1 
   12.87450000000     8.96273000000     4.71519000000 1 1 1 
   11.54980000000     6.66828000000     4.71519000000 1 1 1 
   12.87450000000     7.43310000000     6.87841000000 1 1 1 
   14.19920000000     6.66828000000     4.71519000000 1 1 1 
