ATOMIC_SPECIES
Cd 112.411 Cd_ONCV_PBE-1.0.upf
S 32.065 S_ONCV_PBE-1.0.upf

NUMERICAL_ORBITAL
Cd_gga_7au_100Ry_4s2p2d1f.orb
S_gga_7au_100Ry_2s2p1d.orb

LATTICE_CONSTANT
1.889716

LATTICE_VECTORS
    0.00000     2.94295     2.94295
    2.94295     0.00000     2.94295
    2.94295     2.94295     0.00000

ATOMIC_POSITIONS
Direct

Cd
0.0
1
  0.0000000   0.0000000   0.0000000 1 1 1

S
0.0
1
  0.2500000   0.2500000   0.2500000 1 1 1

