ATOMIC_SPECIES
Nd 144.240000 Nd.upf
Cd 112.411000 Cd_ONCV_PBE-1.0.upf
Ga 69.723000 Ga-low.PD04.PBE.UPF

LATTICE_CONSTANT
1.889726

LATTICE_VECTORS
    4.49209800000     0.00000000000     0.00000000000
    0.00000000000     7.48829799900     0.00000000000
    0.00000000000    -3.74414900000     6.48505599900

ATOMIC_POSITIONS
Cartesian

Nd
0.000000
3
    2.24605000000     4.33606000000     0.00000000000 1 1 1 
    2.24605000000     1.57612000000     2.72992000000 1 1 1 
    2.24605000000     5.32027000000     3.75514000000 1 1 1 

Cd
0.000000
3
    0.00000000000    -1.89755000000     6.48506000000 1 1 1 
    0.00000000000     2.82085000000     4.88585000000 1 1 1 
    0.00000000000    -0.92330000000     1.59920000000 1 1 1 

Ga
0.000000
3
    0.00000000000     0.00000000000     4.32337000000 1 1 1 
    0.00000000000     3.74415000000     2.16169000000 1 1 1 
    2.24605000000     0.00000000000     0.00000000000 1 1 1 
