Rh1
1.0
   2.3306720699999999    0.0000000000000000    1.3456139400000000
   0.7768910300000000    2.1973792799999998    1.3456139400000000
  -0.0000000000000000   -0.0000000000000000    2.6912289000000000
Rh
1
direct
   0.0000000000000000    0.0000000000000000    0.0000000000000000 Rh
