Pb1
1.0
   3.0554374300000000    0.0000000200000000    1.7640591400000001
   1.0184798399999999    2.8806950900000001    1.7640591400000001
   0.0000000200000000    0.0000000100000000    3.5281162199999998
Pb
1
direct
   0.0000000000000000   -0.0000000000000000   -0.0000000000000000 Pb
