ATOMIC_SPECIES
Pu 244.000000 Pu-5spdf.upf
N 14.006700 N_ONCV_PBE-1.0.upf

LATTICE_CONSTANT
1.000000

LATTICE_VECTORS
    6.60274486450     0.00000000000     0.00000000000
    3.30137226826     5.71814342008     0.00000000000
    3.30137194407     1.90604852838     5.39111820978

ATOMIC_POSITIONS
Cartesian

Pu
0.000000
1
    0.00000000000     0.00000000000     0.00000000000 

N
0.000000
1
    6.60274453842     3.81209597423     2.69555910489 
