Fe2
1.000
2.8274149620366233 0.0 0.0
0.0 2.8274149620366233 0.0
0.0 0.0 2.8274149620366233
Fe 
2 
Direct
  0.0000000   0.0000000   0.0000000 Fe
  0.5000000   0.5000000   0.5000000 Fe
