ATOMIC_SPECIES
Rb 85.467800 Rb_ONCV_PBE-1.0.upf
U 238.028900 U-5spdf.upf
O 15.999400 O.upf

LATTICE_CONSTANT
1.000000

LATTICE_VECTORS
    8.24126937119     0.00000000000     0.00000000000
    0.00000000000     8.24126937119     0.00000000000
    0.00000000000     0.00000000000     8.24126937119

ATOMIC_POSITIONS
Cartesian

Rb
0.000000
1
    4.12063468559     4.12063468559     4.12063468559 

U
0.000000
1
    0.00000000000     0.00000000000     0.00000000000 

O
0.000000
3
    0.00000000000     4.12063468559     0.00000000000 
    0.00000000000     0.00000000000     4.12063468559 
    4.12063468559     0.00000000000     0.00000000000 
