Na1
1.0
   3.4358610000000001    0.0000000000000000   -1.2147610000000000
  -1.7179310000000001    2.9755430000000000   -1.2147610000000000
   0.0000000000000000    0.0000000000000000    3.6442820000000000
Na
1
direct
   0.0000000000000000    0.0000000000000000    0.0000000000000000 Na
