ATOMIC_SPECIES
Li 6.941 ./Li_ONCV_PBE-1.0.upf
Ge 72.640 ./Ge_ONCV_PBE-1.0.upf

NUMERICAL_ORBITAL
./Li_gga_7au_100Ry_4s1p.orb
./Ge_gga_8au_100Ry_2s2p2d1f.orb

LATTICE_CONSTANT
1.889716

LATTICE_VECTORS
   13.57158     0.00000     0.00000
    6.84404    11.45334     0.00000
    6.69929     4.01167    10.62018

ATOMIC_POSITIONS
Cartesian

Li
0.0
88
  6.7797695   3.8608600   2.6555069 1 1 1
 20.3379659  11.5997454   7.9593564 1 1 1
 -0.0035281  -0.0035091   0.0020226 1 1 1
 13.5580970   7.7235202   5.3136092 1 1 1
  4.8282325   2.7609558   1.8869091 1 1 1
  8.7302602   2.7527714   1.8878676 1 1 1
  6.7552711   3.9094640   4.9467617 1 1 1
  6.7985331   6.0543046   1.8934405 1 1 1
  2.2422332   1.2810084   0.8810981 1 1 1
 11.3300507   1.2781493   0.8752122 1 1 1
  6.7239072   3.9581208   7.9996238 1 1 1
  6.8241107   8.9434338   0.8772752 1 1 1
 25.0846372  14.3055147   9.8220406 1 1 1
 15.5767813  14.3047324   9.8151795 1 1 1
 20.3949510  11.5018486   2.3863335 1 1 1
 20.2861071   6.2895520   9.8262098 1 1 1
 22.4273409  12.7905832   8.7836826 1 1 1
 18.2416532  12.7916266   8.7837159 1 1 1
 20.3641707  11.5543071   5.5077549 1 1 1
 20.3157019   9.2606370   8.7806772 1 1 1
 18.0873059  10.3209064   7.0838655 1 1 1
  9.0186087  10.3197180   7.0826694 1 1 1
 13.6160791   7.6302814  -0.0176335 1 1 1
 13.5133309   2.6616187   7.0861581 1 1 1
 11.4732758   6.5438431   4.4936773 1 1 1
 15.6478361   6.5453110   4.4943399 1 1 1
 13.5329974   7.7772325   7.7591436 1 1 1
 13.5751270  10.0594839   4.4872486 1 1 1
  4.4114467   2.5870750   4.4812811 1 1 1
  4.4686541   5.1462992   0.8234356 1 1 1
  6.7808611   1.1961620   0.8217259 1 1 1
  9.1374475   5.1506304   0.8230319 1 1 1
  9.0929968   2.5837290   4.4855352 1 1 1
  6.7728497   6.5263270   4.4919812 1 1 1
 15.8420905   8.9682695   3.5350639 1 1 1
 15.8005660   6.4902313   7.0830669 1 1 1
 13.5523493  10.3128343   7.0839129 1 1 1
 11.2626081   6.4955303   7.0895007 1 1 1
 11.3202019   8.9813620   3.5352382 1 1 1
 13.5554665   5.1563461   3.5386867 1 1 1
 13.5256752  10.3894962   9.8891580 1 1 1
 15.9025033  11.6469856   2.5837428 1 1 1
 18.2012514   5.1170314   6.1707439 1 1 1
 13.5811861  13.0069145   6.1731365 1 1 1
 11.2116709   6.5274942   9.8887965 1 1 1
  8.9117110   7.6404597   2.5870209 1 1 1
 11.1937650   3.7710916   2.5890841 1 1 1
 18.2554246   7.6389793   2.5836432 1 1 1
 11.3140933  11.6450419   2.5871602 1 1 1
 15.9426238   3.7716345   2.5914164 1 1 1
  8.8627658   5.1284574   6.1733904 1 1 1
 15.8043652   6.5200823   9.8876743 1 1 1
 15.9465460  11.5048544   7.8953982 1 1 1
 18.0817199  10.2587176   4.5923046 1 1 1
 18.0418484   7.9404197   7.9025354 1 1 1
 11.1552642  11.4986642   7.8960541 1 1 1
  9.0237527   7.9446033   7.9050861 1 1 1
  9.0740226  10.2520337   4.5978272 1 1 1
 13.5887681   5.2733510   0.8412199 1 1 1
 15.7213395   8.8375619   0.8462932 1 1 1
 11.5012655   8.8440839   0.8445579 1 1 1
 13.5453412   2.6453639   4.5991826 1 1 1
 11.4046056   3.8986398   7.9030667 1 1 1
 15.6261210   3.8979537   7.8986184 1 1 1
 22.4398272  12.6697402   3.4905837 1 1 1
 22.3430894   7.7384613  10.5284287 1 1 1
 17.8797645  15.3332375  10.5245699 1 1 1
 18.2354907   7.7373790  10.5308580 1 1 1
 18.3312624  12.6773270   3.4866368 1 1 1
 22.7815078  15.3378373  10.5253671 1 1 1
 24.8599811  14.1148437   7.3112491 1 1 1
 15.8599876  14.1151452   7.3219513 1 1 1
 20.3176727   6.5180590   7.3103896 1 1 1
 15.8110692  11.8643342  10.5293614 1 1 1
 24.8164182  11.8607942  10.5234420 1 1 1
 20.3670124   9.2053876   3.4875354 1 1 1
 15.7636396   9.0566693   8.7968664 1 1 1
 15.8058412  11.4897758   5.3109707 1 1 1
 18.0132177   7.7410976   5.3104051 1 1 1
 11.3413358  11.4921177   5.3129619 1 1 1
 11.2953944   9.0532377   8.7982159 1 1 1
  9.0947904   7.7393855   5.3109025 1 1 1
 11.3560046   6.4207832   1.8220700 1 1 1
 15.8120059   6.4106912   1.8212217 1 1 1
 13.6063695  10.1767294   1.8130327 1 1 1
 15.7644671   3.9642513   5.3135553 1 1 1
 11.3107334   3.9622831   5.3054630 1 1 1
 13.5106596   5.2840926   8.8067847 1 1 1

Ge
0.0
20
  9.1768966   5.2350361   3.5966517 1 1 1
 17.9506938   5.2321519   3.5985249 1 1 1
 13.5061852   7.8264525  10.4576558 1 1 1
 13.6033367  12.6369032   3.5917088 1 1 1
 15.8144484   9.0242530   6.1989406 1 1 1
 11.2891524   9.0223948   6.1950655 1 1 1
 13.5827906   7.6834881   2.6572443 1 1 1
 13.5302272   5.1968684   6.1930690 1 1 1
 22.7463394  12.9093011   6.0974325 1 1 1
 22.6979063  10.2912132   9.8323534 1 1 1
 20.3345976  14.3236335   9.8369426 1 1 1
 17.9265617  10.2901266   9.8300962 1 1 1
 17.9796265  12.9102331   6.1034430 1 1 1
 20.3421495   8.8798163   6.0987101 1 1 1
  9.1088904   5.3174395   8.7557700 1 1 1
  9.2014874  10.1495455   1.8660769 1 1 1
 13.5666917   2.7146030   1.8636615 1 1 1
 18.0094534  10.1523676   1.8649439 1 1 1
 17.9153075   5.3172235   8.7550453 1 1 1
 13.5485769  12.7556650   8.7509705 1 1 1

