ATOMIC_SPECIES
Cu 63.546000 Cu.upf
Sn 118.710000 Sn_ONCV_PBE-1.1.upf

LATTICE_CONSTANT
1.889726

LATTICE_VECTORS
    7.32459800000     0.00000000000     0.00000000000
    0.00000000000     9.98812300000     0.00000000000
    0.00000000000    -4.71363500100     8.85772500200

ATOMIC_POSITIONS
Cartesian

Cu
0.000000
20
    1.63558000000     9.15814000000     0.49252000000 1 1 1 
    5.29787000000     1.11041000000     8.36520000000 1 1 1 
    5.68902000000    -3.88365000000     8.36520000000 1 1 1 
    2.02672000000     4.16408000000     0.49252000000 1 1 1 
    5.44977000000     7.22972000000     1.68122000000 1 1 1 
    1.78747000000     3.03883000000     7.17650000000 1 1 1 
    1.87483000000    -1.95523000000     7.17650000000 1 1 1 
    5.53713000000     2.23566000000     1.68122000000 1 1 1 
    2.02732000000     5.33767000000     2.80133000000 1 1 1 
    5.68962000000     4.93088000000     6.05640000000 1 1 1 
    5.29728000000    -0.06318000000     6.05640000000 1 1 1 
    1.63498000000     0.34360000000     2.80133000000 1 1 1 
    5.54590000000     3.65412000000     3.80518000000 1 1 1 
    1.88360000000     6.61443000000     5.05254000000 1 1 1 
    1.77870000000     1.62037000000     5.05254000000 1 1 1 
    5.44100000000    -1.33994000000     3.80518000000 1 1 1 
    6.67104000000    -0.27983000000     1.69249000000 1 1 1 
    3.00874000000     0.56025000000     7.16524000000 1 1 1 
    0.65356000000     5.55431000000     7.16524000000 1 1 1 
    4.31586000000     4.71424000000     1.69249000000 1 1 1 

Sn
0.000000
16
    2.93369000000     6.81422000000     0.62671000000 1 1 1 
    6.59599000000     3.45433000000     8.23101000000 1 1 1 
    4.39091000000    -1.53973000000     8.23101000000 1 1 1 
    0.72861000000     1.82016000000     0.62671000000 1 1 1 
    6.94734000000     4.77578000000     1.62425000000 1 1 1 
    3.28505000000     5.49277000000     7.23348000000 1 1 1 
    0.37725000000     0.49871000000     7.23348000000 1 1 1 
    4.03955000000    -0.21828000000     1.62425000000 1 1 1 
    3.02628000000     2.69646000000     2.86606000000 1 1 1 
    6.68858000000    -2.41603000000     5.99167000000 1 1 1 
    4.29832000000     2.57803000000     5.99167000000 1 1 1 
    0.63602000000     7.69052000000     2.86606000000 1 1 1 
    6.60981000000     1.15941000000     4.03871000000 1 1 1 
    2.94751000000    -0.87898000000     4.81902000000 1 1 1 
    0.71479000000     4.11508000000     4.81902000000 1 1 1 
    4.37708000000     6.15347000000     4.03871000000 1 1 1 
