ATOMIC_SPECIES
Zr 91.224000 Zr.upf
Ni 58.693400 Ni_ONCV_PBE-1.0.upf
Sn 118.710000 Sn_ONCV_PBE-1.1.upf

LATTICE_CONSTANT
1.889726

LATTICE_VECTORS
    6.85395700000     0.00000000000     0.00000000000
    0.00000000000     7.11124600000     0.00000000000
    0.00000000000     0.00000000000     7.11124600000

ATOMIC_POSITIONS
Cartesian

Zr
0.000000
8
    0.00000000000     1.30359000000     1.30359000000 1 1 1 
    3.42698000000     4.85921000000     2.25203000000 1 1 1 
    3.42698000000     2.25203000000     4.85921000000 1 1 1 
    0.00000000000     5.80766000000     5.80766000000 1 1 1 
    0.00000000000     4.65748000000     2.45376000000 1 1 1 
    3.42698000000     6.00939000000     6.00939000000 1 1 1 
    3.42698000000     1.10186000000     1.10186000000 1 1 1 
    0.00000000000     2.45376000000     4.65748000000 1 1 1 

Ni
0.000000
8
    1.95179000000     2.66412000000     2.66412000000 1 1 1 
    5.37877000000     6.21974000000     0.89150000000 1 1 1 
    5.37877000000     0.89150000000     6.21974000000 1 1 1 
    1.95179000000     4.44712000000     4.44712000000 1 1 1 
    1.47519000000     0.89150000000     6.21974000000 1 1 1 
    1.47519000000     6.21974000000     0.89150000000 1 1 1 
    4.90217000000     2.66412000000     2.66412000000 1 1 1 
    4.90217000000     4.44712000000     4.44712000000 1 1 1 

Sn
0.000000
4
    1.71349000000     3.55562000000     0.00000000000 1 1 1 
    5.14047000000     3.55562000000     0.00000000000 1 1 1 
    1.71349000000     0.00000000000     3.55562000000 1 1 1 
    5.14047000000     0.00000000000     3.55562000000 1 1 1 
