ATOMIC_SPECIES
Co 58.933 Co_ONCV_PBE-1.0.upf upf201
O 15.999 O_ONCV_PBE-1.0.upf upf201

NUMERICAL_ORBITAL
Co_gga_8au_100Ry_4s2p2d1f.orb
O_gga_7au_100Ry_2s2p1d.orb

LATTICE_CONSTANT
1.88972612463

LATTICE_VECTORS
    5.7663312144     0.0002543370     0.0000966423 #latvec1
   -2.8833791595     4.9936349008     0.0004327484 #latvec2
    0.0006920926     0.0025154552    14.4911338997 #latvec3

ATOMIC_POSITIONS
Direct

Co #label
0 #magnetism
12 #number of atoms
    0.1667568267     0.3334696752     0.1672240428 m  1  1  1 mag         1.0000000000
    0.1667566935     0.8334699225     0.1672240378 m  1  1  1 mag         1.0000000000
    0.6667571755     0.3334700963     0.1672240031 m  1  1  1 mag         1.0000000000
    0.6667573909     0.8334700129     0.1672240272 m  1  1  1 mag         1.0000000000
    0.0000566104     0.0000475703     0.4999995790 m  1  1  1 mag         1.0000000000
    0.0000580709     0.5000509898     0.4999997330 m  1  1  1 mag         1.0000000000
    0.5000544296     0.0000467366     0.4999996636 m  1  1  1 mag         1.0000000000
    0.5000562178     0.5000498068     0.4999998516 m  1  1  1 mag         1.0000000000
    0.3331878828     0.1664832760     0.8327761870 m  1  1  1 mag         1.0000000000
    0.3331861773     0.6664796772     0.8327760441 m  1  1  1 mag         1.0000000000
    0.8331875392     0.1664830166     0.8327762117 m  1  1  1 mag         1.0000000000
    0.8331857158     0.6664795381     0.8327760579 m  1  1  1 mag         1.0000000000

O #label
0 #magnetism
24 #number of atoms
    0.0000561012     0.0000885644     0.2321077412 m  1  1  1 mag         0.0000000000
    0.0000561119     0.5000885508     0.2321077729 m  1  1  1 mag         0.0000000000
    0.5000560848     0.0000885426     0.2321078041 m  1  1  1 mag         0.0000000000
    0.5000560697     0.5000885474     0.2321077881 m  1  1  1 mag         0.0000000000
    0.3334620297     0.1668574661     0.1023031586 m  1  1  1 mag         0.0000000000
    0.3334620157     0.6668574840     0.1023031275 m  1  1  1 mag         0.0000000000
    0.8334619730     0.1668574607     0.1023031711 m  1  1  1 mag         0.0000000000
    0.8334619906     0.6668574502     0.1023031859 m  1  1  1 mag         0.0000000000
    0.3333527720     0.1666628429     0.5648900435 m  1  1  1 mag         0.0000000000
    0.3333526934     0.6666626789     0.5648898294 m  1  1  1 mag         0.0000000000
    0.8333526596     0.1666627806     0.5648902265 m  1  1  1 mag         0.0000000000
    0.8333525758     0.6666626247     0.5648899557 m  1  1  1 mag         0.0000000000
    0.1667615912     0.3334362680     0.4351126870 m  1  1  1 mag         0.0000000000
    0.1667617158     0.8334364621     0.4351129180 m  1  1  1 mag         0.0000000000
    0.6667617633     0.3334363262     0.4351125708 m  1  1  1 mag         0.0000000000
    0.6667618521     0.8334365580     0.4351127622 m  1  1  1 mag         0.0000000000
    0.1664816205     0.3330936739     0.8976953897 m  1  1  1 mag         0.0000000000
    0.1664817830     0.8330939981     0.8976956206 m  1  1  1 mag         0.0000000000
    0.6664816594     0.3330936876     0.8976953714 m  1  1  1 mag         0.0000000000
    0.6664818149     0.8330940194     0.8976955868 m  1  1  1 mag         0.0000000000
    0.9998855267     0.9998608768     0.7678908066 m  1  1  1 mag         0.0000000000
    0.9998856142     0.4998610667     0.7678910721 m  1  1  1 mag         0.0000000000
    0.4998854997     0.9998608715     0.7678908310 m  1  1  1 mag         0.0000000000
    0.4998855975     0.4998610522     0.7678911128 m  1  1  1 mag         0.0000000000
