LATTICE_CONSTANT
1.8897261246257702

LATTICE_VECTORS
5.653405409827219 -7.416751986010373e-21 -4.707648585287821e-22 
-2.8271280041910933 4.895534545594447 1.5144826409526388e-20 
0.0004253843679084388 0.0011288997717036195 13.06162321055022 

ATOMIC_POSITIONS
Cartesian    # Cartesian(Unit is LATTICE_CONSTANT)
Co
1 
12
-0.000028860475 1.632178643332 2.173347040591 1 1 1
-1.413597582278 4.079927464887 2.173348281555 1 1 1
2.826663328652 1.632179232677 2.173340960498 1 1 1
1.413109748836 4.079933245701 2.173335916074 1 1 1
0.000263298217 0.000610031526 6.531071732549 1 1 1
-1.413305443167 2.448392882578 6.531155288854 1 1 1
2.826920328293 0.000590253541 6.531114256598 1 1 1
1.413380515370 2.448404092808 6.531141876953 1 1 1
1.413580809548 0.816714799613 10.888016309857 1 1 1
0.000008459047 3.264418132709 10.888022131799 1 1 1
4.240290807802 0.816711448331 10.888011648795 1 1 1
2.826706828266 3.264426016840 10.888021110306 1 1 1
O
0 
24
2.826375951957 4.895837887038 3.109938463379 1 1 1
4.239962122833 2.448083277966 3.109950555788 1 1 1
-0.000312977504 4.895833787166 3.109962196207 1 1 1
1.413250824508 2.448045506058 3.109970839160 1 1 1
1.413348781333 0.816270515432 1.237126665488 1 1 1
-0.000209691862 3.264023808001 1.237122068375 1 1 1
4.240068839967 0.816286956170 1.237118674223 1 1 1
2.826513016570 3.264023126094 1.237122705352 1 1 1
1.413502609341 0.816485609967 7.467594475173 1 1 1
-0.000057166420 3.264321678083 7.467590836098 1 1 1
4.240290168708 0.816504050155 7.467597354942 1 1 1
2.826653592251 3.264249088187 7.467581008528 1 1 1
0.000109846519 1.632499962991 5.594350674577 1 1 1
-1.413504743904 4.080184180556 5.594363824490 1 1 1
2.826773154761 1.632406049646 5.594364447593 1 1 1
1.413212574736 4.080202596057 5.594356915317 1 1 1
0.000182384353 1.632593642320 11.824168158691 1 1 1
-1.413397374368 4.080335889594 11.824171443771 1 1 1
2.826874793095 1.632631955988 11.824140238559 1 1 1
1.413271876236 4.080384409811 11.824162016406 1 1 1
5.653696626395 0.000809059466 9.951629334048 1 1 1
4.240132026261 2.448530995694 9.951635607146 1 1 1
2.827005259759 0.000810302225 9.951643717344 1 1 1
1.413447543554 2.448567733787 9.951628649094 1 1 1

ATOMIC_SPECIES
Co 58.933 Co_ONCV_PBE-1.0.upf
O 15.999 O_ONCV_PBE-1.0.upf

NUMERICAL_ORBITAL
Co_gga_8au_100Ry_4s2p2d1f.orb
O_gga_7au_100Ry_2s2p1d.orb
