ATOMIC_SPECIES
Dy 162.500000 Dy3+_f--core-icmod1.PD04.PBE.UPF
Bi 208.980400 Bi.upf
Br 79.904000 Br.upf
O 15.999400 O.upf

LATTICE_CONSTANT
1.000000

LATTICE_VECTORS
    7.39820529101     0.00000000000     0.00000000000
    0.00000000000     7.39820529101     0.00000000000
    0.00000000000     0.00000000000    17.60476283869

ATOMIC_POSITIONS
Cartesian

Dy
0.000000
1
    0.00000000000     0.00000000000     0.00000000000 

Bi
0.000000
2
    3.69910264551     3.69910264551     4.73414958924 
    3.69910264551     3.69910264551    12.87061324945 

Br
0.000000
1
    0.00000000000     0.00000000000     8.80238141934 

O
0.000000
4
    0.00000000000     3.69910264551    14.98961052852 
    0.00000000000     3.69910264551     2.61515231016 
    3.69910264551     0.00000000000    14.98961052852 
    3.69910264551     0.00000000000     2.61515231016 
