ATOMIC_SPECIES
Y 88.905900 Y.upf
Zn 65.390000 Zn_ONCV_PBE-1.0.upf

LATTICE_CONSTANT
1.889726

LATTICE_VECTORS
    5.46931822000     0.00000000000     0.00000000000
    2.73465911000     4.73656852000     0.00000000000
    2.73465911000     1.57885617300     4.46567962700

ATOMIC_POSITIONS
Cartesian

Y
0.000000
2
    5.46932000000     3.15771000000     2.23284000000 1 1 1 
    2.73466000000     1.57886000000     1.11642000000 1 1 1 

Zn
0.000000
4
    8.20398000000     4.73657000000     1.67463000000 1 1 1 
    9.57131000000     5.52600000000     3.90747000000 1 1 1 
    8.20398000000     3.15771000000     3.90747000000 1 1 1 
    6.83665000000     5.52600000000     3.90747000000 1 1 1 
