Lu2
1.0
   3.5180519600000002   -0.0000000100000000   -0.0000000000000000
  -1.7590264900000001    3.0467225600000001    0.0000000000000000
  -0.0000000000000000   -0.0000000000000000    5.4460843399999996
Lu
2
direct
   0.3333330000000000    0.6666670000000000    0.2500000000000000 Lu
   0.6666670000000000    0.3333330000000000    0.7500000000000000 Lu
