ATOMIC_SPECIES
Er 167.259000 Er.upf
Pt 195.078000 Pt_ONCV_PBE-1.0.upf

LATTICE_CONSTANT
1.889726

LATTICE_VECTORS
    4.44908100000     0.00000000000     0.00000000000
    0.00000000000     5.60613900000     0.00000000000
    0.00000000000     0.00000000000     6.98346800000

ATOMIC_POSITIONS
Cartesian

Er
0.000000
4
    1.11227000000     3.58608000000     1.26660000000 1 1 1 
    3.33681000000     2.02005000000     5.71687000000 1 1 1 
    3.33681000000     0.78302000000     2.22514000000 1 1 1 
    1.11227000000     4.82312000000     4.75833000000 1 1 1 

Pt
0.000000
4
    1.11227000000     0.87978000000     0.31167000000 1 1 1 
    3.33681000000     4.72636000000     6.67180000000 1 1 1 
    3.33681000000     3.68285000000     3.18006000000 1 1 1 
    1.11227000000     1.92329000000     3.80341000000 1 1 1 
