ATOMIC_SPECIES
Eu 151.964000 Eu.upf
B 10.811000 B_ONCV_PBE-1.0.upf

LATTICE_CONSTANT
1.000000

LATTICE_VECTORS
    7.88094531132     0.00000000000     0.00000000000
    0.00000000000     7.88094531132     0.00000000000
    0.00000000000     0.00000000000     7.88094531132

ATOMIC_POSITIONS
Cartesian

Eu
0.000000
1
    0.00000000000     0.00000000000     0.00000000000 

B
0.000000
6
    1.58722238570     3.94047265566     3.94047265566 
    3.94047265566     3.94047265566     6.29372292562 
    3.94047265566     1.58722238570     3.94047265566 
    3.94047265566     3.94047265566     1.58722238570 
    3.94047265566     6.29372292562     3.94047265566 
    6.29372292562     3.94047265566     3.94047265566 
