ATOMIC_SPECIES
Na	1	Na_ONCV_PBE-1.0.upf
Cl	1	Cl_ONCV_PBE-1.0.upf

NUMERICAL_ORBITAL
Na_gga_8au_100Ry_4s2p1d.orb
Cl_gga_7au_100Ry_2s2p1d.orb

LATTICE_CONSTANT
1.889766

LATTICE_VECTORS
0.0	2.82	2.82
2.82	0.0	2.82
2.82	2.82	0.0

ATOMIC_POSITIONS
Direct

Na
0.0
1
0.0	0.0	0.0	1 1 1

Cl
0.0
1
0.5	0.5	0.5	1 1 1
