ATOMIC_SPECIES
Na 22.989 Na_ONCV_PBE-1.0.upf upf201
Cr 51.996 Cr_ONCV_PBE-1.0.upf upf201
O 15.999 O_ONCV_PBE-1.0.upf upf201

NUMERICAL_ORBITAL
Na_gga_8au_100Ry_4s2p1d.orb
Cr_gga_8au_100Ry_4s2p2d1f.orb
O_gga_7au_100Ry_2s2p1d.orb

LATTICE_CONSTANT
1.88972612463

LATTICE_VECTORS
    6.1212982241     0.0000200833    -0.0000077392 #latvec1
   -3.0606691102     5.3011882013     0.0000079157 #latvec2
    0.0000247989    -0.0000157660    16.1106739544 #latvec3

ATOMIC_POSITIONS
Direct

Na #label
0 #magnetism
12 #number of atoms
    0.0000002387     0.9999997268     0.9999984925 m  1  1  1 mag         0.0000000000
    0.0000002312     0.4999997187     0.9999984520 m  1  1  1 mag         0.0000000000
    0.5000002467     0.9999997302     0.9999984505 m  1  1  1 mag         0.0000000000
    0.5000002534     0.4999997352     0.9999984453 m  1  1  1 mag         0.0000000000
    0.3333399586     0.1666701146     0.3332239081 m  1  1  1 mag         0.0000000000
    0.3333334246     0.6666668383     0.3332335079 m  1  1  1 mag         0.0000000000
    0.8333301628     0.1666701178     0.3332239056 m  1  1  1 mag         0.0000000000
    0.8333301558     0.6666603034     0.3332239004 m  1  1  1 mag         0.0000000000
    0.1666697904     0.3333396953     0.6667774491 m  1  1  1 mag         0.0000000000
    0.1666697982     0.8333300163     0.6667774565 m  1  1  1 mag         0.0000000000
    0.6666665689     0.3333332404     0.6667678190 m  1  1  1 mag         0.0000000000
    0.6666600880     0.8333300093     0.6667774507 m  1  1  1 mag         0.0000000000

Cr #label
3 #magnetism
12 #number of atoms
    0.1666744267     0.3333480373     0.1665525700 m  1  1  1 mag         3.0000000000
    0.1666743869     0.8333259209     0.1665525675 m  1  1  1 mag         3.0000000000
    0.6666670597     0.3333333330     0.1665600228 m  1  1  1 mag         3.0000000000
    0.6666523186     0.8333259014     0.1665525670 m  1  1  1 mag         3.0000000000
    0.9999995388     0.0000005147     0.5000014767 m  1  1  1 mag         3.0000000000
    0.9999994630     0.5000005275     0.5000015677 m  1  1  1 mag         3.0000000000
    0.4999995429     0.0000005877     0.5000015658 m  1  1  1 mag         3.0000000000
    0.4999995684     0.5000005070     0.5000015715 m  1  1  1 mag         3.0000000000
    0.3333481715     0.1666735966     0.8334457476 m  1  1  1 mag         3.0000000000
    0.3333333585     0.6666662654     0.8334383612 m  1  1  1 mag         3.0000000000
    0.8333258966     0.1666736019     0.8334457471 m  1  1  1 mag         3.0000000000
    0.8333259356     0.6666514166     0.8334457410 m  1  1  1 mag         3.0000000000

O #label
0 #magnetism
24 #number of atoms
    0.0000003050     0.0000001234     0.2324080151 m  1  1  1 mag         0.0000000000
    0.0000066510     0.5000033002     0.2323661836 m  1  1  1 mag         0.0000000000
    0.4999970855     0.9999937536     0.2323661894 m  1  1  1 mag         0.0000000000
    0.4999970871     0.5000032817     0.2323661901 m  1  1  1 mag         0.0000000000
    0.3333338722     0.1666665354     0.1007843070 m  1  1  1 mag         0.0000000000
    0.3333338903     0.6666664609     0.1008497065 m  1  1  1 mag         0.0000000000
    0.8333338161     0.1666664662     0.1007843100 m  1  1  1 mag         0.0000000000
    0.8333337674     0.6666664539     0.1007843099 m  1  1  1 mag         0.0000000000
    0.3333522691     0.1666770170     0.5658397621 m  1  1  1 mag         0.0000000000
    0.3333326651     0.6666674024     0.5658971236 m  1  1  1 mag         0.0000000000
    0.8333229244     0.1666771294     0.5658397543 m  1  1  1 mag         0.0000000000
    0.8333230459     0.6666477981     0.5658397636 m  1  1  1 mag         0.0000000000
    0.1666762194     0.3333535233     0.4341646742 m  1  1  1 mag         0.0000000000
    0.1666761328     0.8333239264     0.4341646586 m  1  1  1 mag         0.0000000000
    0.6666662482     0.3333338315     0.4341082727 m  1  1  1 mag         0.0000000000
    0.6666465500     0.8333238498     0.4341646714 m  1  1  1 mag         0.0000000000
    0.1666666068     0.3333330188     0.8992130981 m  1  1  1 mag         0.0000000000
    0.1666666411     0.8333329758     0.8992131032 m  1  1  1 mag         0.0000000000
    0.6666665916     0.3333329501     0.8991470674 m  1  1  1 mag         0.0000000000
    0.6666665525     0.8333329842     0.8992130985 m  1  1  1 mag         0.0000000000
    0.0000001036     0.9999993874     0.7675905230 m  1  1  1 mag         0.0000000000
    0.9999938523     0.4999963113     0.7676321699 m  1  1  1 mag         0.0000000000
    0.5000032075     0.0000056593     0.7676321682 m  1  1  1 mag         0.0000000000
    0.5000032364     0.4999962938     0.7676321679 m  1  1  1 mag         0.0000000000
