Li12Mn12O24
1.000
    6.2721442721    -0.0118794272    -0.0226787002 #latvec1
   -3.6101583781     5.1289937790     0.0227788774 #latvec2
   -1.3735842149     0.7143729117    14.7236455857 #latvec3
Li Mn O 
12 12 24 
Direct
  0.9999999   0.0001349   0.0000019 Li
  0.0000081   0.5001235   0.0000002 Li
  0.5000099   0.0001242   0.9999990 Li
  0.4999989   0.5001322   0.0000018 Li
  0.3333459   0.1666272   0.3333264 Li
  0.3333450   0.6666284   0.3333267 Li
  0.8333458   0.1666284   0.3333269 Li
  0.8333465   0.6666280   0.3333267 Li
  0.1666995   0.3331702   0.6666527 Li
  0.1667060   0.8331661   0.6666514 Li
  0.6667051   0.3331645   0.6666514 Li
  0.6667009   0.8331709   0.6666519 Li
  0.1667564   0.3335504   0.1666640 Mn
  0.1667411   0.8335742   0.1666716 Mn
  0.6667387   0.3335743   0.1666728 Mn
  0.6667576   0.8335524   0.1666642 Mn
  0.9998576   0.9997394   0.5000003 Mn
  0.9998511   0.4997515   0.5000038 Mn
  0.4998514   0.9997525   0.5000041 Mn
  0.4998556   0.4997385   0.5000010 Mn
  0.3333958   0.1667005   0.8333286 Mn
  0.3333999   0.6666978   0.8333265 Mn
  0.8334001   0.1666985   0.8333267 Mn
  0.8333958   0.6667004   0.8333286 Mn
  0.9901403   0.0101467   0.2449776 O
  0.9902155   0.5104454   0.2449730 O
  0.4898480   0.0100784   0.2449736 O
  0.4899820   0.5102989   0.2449711 O
  0.3432195   0.1567379   0.0883991 O
  0.3433586   0.6569615   0.0883795 O
  0.8435138   0.1568002   0.0883828 O
  0.8435920   0.6571044   0.0883989 O
  0.3233415   0.1766148   0.5782846 O
  0.3232281   0.6763700   0.5782956 O
  0.8230755   0.1765304   0.5782908 O
  0.8229718   0.6762495   0.5782844 O
  0.1767251   0.3232511   0.4217034 O
  0.1766067   0.8230198   0.4217042 O
  0.6764470   0.3231710   0.4216983 O
  0.6763585   0.8228836   0.4217039 O
  0.1565240   0.3432213   0.9116245 O
  0.1566314   0.8434787   0.9116305 O
  0.6567893   0.3433235   0.9116356 O
  0.6568928   0.8435919   0.9116248 O
  0.0099963   0.9900822   0.7550340 O
  0.0099039   0.4898072   0.7550403 O
  0.5102735   0.9901772   0.7550408 O
  0.5101519   0.4899253   0.7550396 O
