ATOMIC_SPECIES
Li 6.941 Li_ONCV_PBE-1.0.upf upf201
Mn 54.938 Mn_ONCV_PBE-1.0.upf upf201
O 15.999 O_ONCV_PBE-1.0.upf upf201

NUMERICAL_ORBITAL
Li_gga_7au_100Ry_4s1p.orb
Mn_gga_9au_100Ry_4s2p2d1f.orb
O_gga_7au_100Ry_2s2p1d.orb

LATTICE_CONSTANT
1.88972612463

LATTICE_VECTORS
    6.2721442721    -0.0118794272    -0.0226787002 #latvec1
   -3.6101583781     5.1289937790     0.0227788774 #latvec2
   -1.3735842149     0.7143729117    14.7236455857 #latvec3

ATOMIC_POSITIONS
Direct

Li #label
0 #magnetism
12 #number of atoms
    0.9999998588     0.0001348807     0.0000019423 m  1  1  1 mag         0.0000000000
    0.0000081305     0.5001235447     0.0000002256 m  1  1  1 mag         0.0000000000
    0.5000098649     0.0001241903     0.9999989617 m  1  1  1 mag         0.0000000000
    0.4999988817     0.5001321570     0.0000018361 m  1  1  1 mag         0.0000000000
    0.3333459134     0.1666271538     0.3333264395 m  1  1  1 mag         0.0000000000
    0.3333450362     0.6666284180     0.3333266910 m  1  1  1 mag         0.0000000000
    0.8333458394     0.1666283587     0.3333268568 m  1  1  1 mag         0.0000000000
    0.8333465333     0.6666280154     0.3333266691 m  1  1  1 mag         0.0000000000
    0.1666994878     0.3331702258     0.6666527411 m  1  1  1 mag         0.0000000000
    0.1667060164     0.8331660611     0.6666514140 m  1  1  1 mag         0.0000000000
    0.6667050551     0.3331644747     0.6666513855 m  1  1  1 mag         0.0000000000
    0.6667008605     0.8331709254     0.6666519076 m  1  1  1 mag         0.0000000000

Mn #label
4 #magnetism
12 #number of atoms
    0.1667564395     0.3335504421     0.1666639787 m  1  1  1 mag         4.0000000000
    0.1667411046     0.8335742249     0.1666716077 m  1  1  1 mag         4.0000000000
    0.6667387366     0.3335743363     0.1666727836 m  1  1  1 mag         4.0000000000
    0.6667576356     0.8335524478     0.1666642294 m  1  1  1 mag         4.0000000000
    0.9998576239     0.9997394299     0.5000002969 m  1  1  1 mag         4.0000000000
    0.9998511310     0.4997515458     0.5000038293 m  1  1  1 mag         4.0000000000
    0.4998514473     0.9997525219     0.5000040947 m  1  1  1 mag         4.0000000000
    0.4998556374     0.4997385456     0.5000009766 m  1  1  1 mag         4.0000000000
    0.3333958053     0.1667004845     0.8333286086 m  1  1  1 mag         4.0000000000
    0.3333999298     0.6666978438     0.8333264831 m  1  1  1 mag         4.0000000000
    0.8334001162     0.1666985054     0.8333266697 m  1  1  1 mag         4.0000000000
    0.8333958390     0.6667004335     0.8333285614 m  1  1  1 mag         4.0000000000

O #label
0 #magnetism
24 #number of atoms
    0.9901402597     0.0101467219     0.2449776063 m  1  1  1 mag         0.0000000000
    0.9902155087     0.5104453880     0.2449729651 m  1  1  1 mag         0.0000000000
    0.4898480418     0.0100784051     0.2449735852 m  1  1  1 mag         0.0000000000
    0.4899819792     0.5102989209     0.2449711179 m  1  1  1 mag         0.0000000000
    0.3432195185     0.1567379084     0.0883991468 m  1  1  1 mag         0.0000000000
    0.3433585850     0.6569614994     0.0883794611 m  1  1  1 mag         0.0000000000
    0.8435137534     0.1568002084     0.0883828283 m  1  1  1 mag         0.0000000000
    0.8435919874     0.6571043520     0.0883988968 m  1  1  1 mag         0.0000000000
    0.3233415184     0.1766147821     0.5782846421 m  1  1  1 mag         0.0000000000
    0.3232280538     0.6763700211     0.5782955597 m  1  1  1 mag         0.0000000000
    0.8230754754     0.1765304465     0.5782908277 m  1  1  1 mag         0.0000000000
    0.8229718500     0.6762494821     0.5782843582 m  1  1  1 mag         0.0000000000
    0.1767250834     0.3232510864     0.4217033680 m  1  1  1 mag         0.0000000000
    0.1766067317     0.8230198216     0.4217041617 m  1  1  1 mag         0.0000000000
    0.6764470186     0.3231710479     0.4216982781 m  1  1  1 mag         0.0000000000
    0.6763585440     0.8228836229     0.4217038855 m  1  1  1 mag         0.0000000000
    0.1565239740     0.3432213256     0.9116245240 m  1  1  1 mag         0.0000000000
    0.1566313636     0.8434787406     0.9116305329 m  1  1  1 mag         0.0000000000
    0.6567892958     0.3433235289     0.9116356358 m  1  1  1 mag         0.0000000000
    0.6568928136     0.8435918668     0.9116248375 m  1  1  1 mag         0.0000000000
    0.0099962785     0.9900822107     0.7550340369 m  1  1  1 mag         0.0000000000
    0.0099038817     0.4898072165     0.7550403091 m  1  1  1 mag         0.0000000000
    0.5102734798     0.9901772310     0.7550408054 m  1  1  1 mag         0.0000000000
    0.5101518978     0.4899252920     0.7550395715 m  1  1  1 mag         0.0000000000
