ATOMIC_SPECIES
Ga 69.723 Ga.upf
N 14.007 N_ONCV_PBE-1.0.upf

NUMERICAL_ORBITAL
Ga_gga_8au_100Ry_2s2p2d1f.orb
N_gga_7au_100Ry_2s2p1d.orb

LATTICE_CONSTANT
1.889716

LATTICE_VECTORS
    0.00000     2.25350     2.25350
    2.25350     0.00000     2.25350
    2.25350     2.25350     0.00000

ATOMIC_POSITIONS
Direct

Ga
0.0
1
  0.0000000   0.0000000   0.0000000 1 1 1

N
0.0
1
  0.7500000   0.7500000   0.7500000 1 1 1

