ATOMIC_SPECIES
Pa 231.035900 Pa-5spdf.upf
As 74.921600 As.PD04.PBE.UPF

LATTICE_CONSTANT
1.000000

LATTICE_VECTORS
    7.74522780923     0.00000000000     0.00000000000
    3.87261390461     6.70756404089     0.00000000000
    3.87261390461     2.23585468030     6.32395202474

ATOMIC_POSITIONS
Cartesian

Pa
0.000000
1
    7.74522780923     4.47170936059     3.16197601237 

As
0.000000
1
    0.00000000000     0.00000000000     0.00000000000 
