ATOMIC_SPECIES
Li 6.941 Li_ONCV_PBE-1.0.upf upf201
Cr 51.996 Cr_ONCV_PBE-1.0.upf upf201
O 15.999 O_ONCV_PBE-1.0.upf upf201

NUMERICAL_ORBITAL
Li_gga_7au_100Ry_4s1p.orb
Cr_gga_8au_100Ry_4s2p2d1f.orb
O_gga_7au_100Ry_2s2p1d.orb

LATTICE_CONSTANT
1.88972612463

LATTICE_VECTORS
    5.9631733186    -0.0000109598    -0.0000062806 #latvec1
   -2.9815749635     5.1642664122     0.0000050077 #latvec2
    0.0000368420    -0.0000179140    14.5200297614 #latvec3

ATOMIC_POSITIONS
Direct

Li #label
0 #magnetism
12 #number of atoms
    0.9999996364     0.0000003288     0.0000003672 m  1  1  1 mag         0.0000000000
    0.9999999237     0.5000000990     0.0000002586 m  1  1  1 mag         0.0000000000
    0.4999999222     0.0000000648     0.0000002645 m  1  1  1 mag         0.0000000000
    0.4999997957     0.5000003165     0.0000002906 m  1  1  1 mag         0.0000000000
    0.3333337751     0.1666664874     0.3333909390 m  1  1  1 mag         0.0000000000
    0.3333335705     0.6666664053     0.3333910166 m  1  1  1 mag         0.0000000000
    0.8333335129     0.1666665212     0.3333909435 m  1  1  1 mag         0.0000000000
    0.8333335271     0.6666662118     0.3333909392 m  1  1  1 mag         0.0000000000
    0.1666665302     0.3333331380     0.6666084869 m  1  1  1 mag         0.0000000000
    0.1666666698     0.8333331876     0.6666085682 m  1  1  1 mag         0.0000000000
    0.6666666337     0.3333331746     0.6666085824 m  1  1  1 mag         0.0000000000
    0.6666666602     0.8333332649     0.6666084894 m  1  1  1 mag         0.0000000000

Cr #label
3 #magnetism
12 #number of atoms
    0.1666667339     0.3333337095     0.1667161956 m  1  1  1 mag         3.0000000000
    0.1666667025     0.8333337789     0.1667161850 m  1  1  1 mag         3.0000000000
    0.6666666985     0.3333337585     0.1667161580 m  1  1  1 mag         3.0000000000
    0.6666667535     0.8333337379     0.1667162109 m  1  1  1 mag         3.0000000000
    0.0000008032     0.9999989096     0.4999995503 m  1  1  1 mag         3.0000000000
    0.0000008553     0.4999989227     0.4999995969 m  1  1  1 mag         3.0000000000
    0.5000008133     0.9999988704     0.4999995900 m  1  1  1 mag         3.0000000000
    0.5000008037     0.4999989418     0.4999995960 m  1  1  1 mag         3.0000000000
    0.3333324865     0.1666674065     0.8332842626 m  1  1  1 mag         3.0000000000
    0.3333324547     0.6666674169     0.8332842276 m  1  1  1 mag         3.0000000000
    0.8333324666     0.1666674415     0.8332842771 m  1  1  1 mag         3.0000000000
    0.8333324946     0.6666673998     0.8332842547 m  1  1  1 mag         3.0000000000

O #label
0 #magnetism
24 #number of atoms
    0.9999998421     0.0000006262     0.2419033782 m  1  1  1 mag         0.0000000000
    0.9999997847     0.5000006665     0.2419033839 m  1  1  1 mag         0.0000000000
    0.4999997973     0.0000006767     0.2419033781 m  1  1  1 mag         0.0000000000
    0.4999998394     0.5000006227     0.2419033892 m  1  1  1 mag         0.0000000000
    0.3333336075     0.1666668603     0.0915523732 m  1  1  1 mag         0.0000000000
    0.3333336654     0.6666668282     0.0915523783 m  1  1  1 mag         0.0000000000
    0.8333336684     0.1666668239     0.0915523802 m  1  1  1 mag         0.0000000000
    0.8333336399     0.6666668913     0.0915523665 m  1  1  1 mag         0.0000000000
    0.3333338636     0.1666657902     0.5751598941 m  1  1  1 mag         0.0000000000
    0.3333338742     0.6666658276     0.5751598745 m  1  1  1 mag         0.0000000000
    0.8333338830     0.1666658110     0.5751598744 m  1  1  1 mag         0.0000000000
    0.8333339080     0.6666658365     0.5751598943 m  1  1  1 mag         0.0000000000
    0.1666678215     0.3333319999     0.4248396585 m  1  1  1 mag         0.0000000000
    0.1666677959     0.8333319513     0.4248396600 m  1  1  1 mag         0.0000000000
    0.6666677759     0.3333319791     0.4248396523 m  1  1  1 mag         0.0000000000
    0.6666677535     0.8333319285     0.4248396607 m  1  1  1 mag         0.0000000000
    0.1666654421     0.3333343753     0.9084478023 m  1  1  1 mag         0.0000000000
    0.1666654615     0.8333343836     0.9084478284 m  1  1  1 mag         0.0000000000
    0.6666655282     0.3333343678     0.9084477776 m  1  1  1 mag         0.0000000000
    0.6666655127     0.8333344351     0.9084478037 m  1  1  1 mag         0.0000000000
    0.9999993942     0.0000005004     0.7580970953 m  1  1  1 mag         0.0000000000
    0.9999993968     0.5000004935     0.7580970845 m  1  1  1 mag         0.0000000000
    0.4999993902     0.0000004921     0.7580970813 m  1  1  1 mag         0.0000000000
    0.4999994344     0.5000004767     0.7580971118 m  1  1  1 mag         0.0000000000
