ATOMIC_SPECIES
Sm 150.360000 Sm.upf
Co 58.933200 Co_ONCV_PBE-1.0.upf
B 10.811000 B_ONCV_PBE-1.0.upf

LATTICE_CONSTANT
1.000000

LATTICE_VECTORS
   10.37751531691     0.00000000000     0.00000000000
    5.98288221223     8.47926556887     0.00000000000
   -8.18019876447    -4.23963278438     4.77521582552

ATOMIC_POSITIONS
Cartesian

Sm
0.000000
1
    0.00000000000     0.00000000000     0.00000000000 

Co
0.000000
2
    5.18875765851     0.00000000003     2.38760791276 
    2.99144110617     4.23963278446     2.38760791276 

B
0.000000
2
   10.77729734954     5.58565683863     0.00000000000 
    5.58310017960     2.89360873023     0.00000000000 
