ATOMIC_SPECIES
Li 6.941 Li_ONCV_PBE-1.0.upf upf201
Ni 58.693 Ni_ONCV_PBE-1.0.upf upf201
O 15.999 O_ONCV_PBE-1.0.upf upf201

NUMERICAL_ORBITAL
Li_gga_7au_100Ry_4s1p.orb
Ni_gga_8au_100Ry_4s2p2d1f.orb
O_gga_7au_100Ry_2s2p1d.orb

LATTICE_CONSTANT
1.88972612463

LATTICE_VECTORS
    5.6431028161    -0.0152285446     0.0047219208 #latvec1
   -2.9293671822     5.0552461130     0.0068417807 #latvec2
   -0.1641404915    -0.1554530942    14.7134098821 #latvec3

ATOMIC_POSITIONS
Direct

Li #label
0 #magnetism
6 #number of atoms
    0.0003346203     0.5001537592     0.9999847435 m  1  1  1 mag         0.0000000000
    0.5003357395     0.0001523380     0.9999844774 m  1  1  1 mag         0.0000000000
    0.3342358434     0.1663388228     0.3333092911 m  1  1  1 mag         0.0000000000
    0.8342318210     0.6663636782     0.3333143197 m  1  1  1 mag         0.0000000000
    0.1656708856     0.3335781544     0.6667136496 m  1  1  1 mag         0.0000000000
    0.6656668408     0.8335982067     0.6667178062 m  1  1  1 mag         0.0000000000

Ni #label
1 #magnetism
12 #number of atoms
    0.1677343840     0.3323815885     0.1664873177 m  1  1  1 mag         1.0000000000
    0.1678695054     0.8323187712     0.1666469405 m  1  1  1 mag         1.0000000000
    0.6678644831     0.3322984887     0.1666398645 m  1  1  1 mag         1.0000000000
    0.6677552666     0.8323928745     0.1664891757 m  1  1  1 mag         1.0000000000
    0.4998079060     0.4998980809     0.5000473498 m  1  1  1 mag         1.0000000000
    0.4997986776     0.9999140619     0.5000479642 m  1  1  1 mag         1.0000000000
    0.9998023505     0.4999107164     0.5000453969 m  1  1  1 mag         1.0000000000
    0.9998149239     0.9999010232     0.5000485236 m  1  1  1 mag         1.0000000000
    0.3324078995     0.1676739474     0.8334695318 m  1  1  1 mag         1.0000000000
    0.3322896769     0.6677885185     0.8333053058 m  1  1  1 mag         1.0000000000
    0.8322819785     0.1677895040     0.8333055635 m  1  1  1 mag         1.0000000000
    0.8324139431     0.6676738159     0.8334705229 m  1  1  1 mag         1.0000000000

O #label
0 #magnetism
24 #number of atoms
    0.9944433232     0.9719115562     0.2374375810 m  1  1  1 mag         0.0000000000
    0.0017939870     0.5145826996     0.2337235032 m  1  1  1 mag         0.0000000000
    0.5021014050     0.0143914979     0.2336216672 m  1  1  1 mag         0.0000000000
    0.4942771441     0.4715332872     0.2375261387 m  1  1  1 mag         0.0000000000
    0.3340332605     0.1499302274     0.0994843008 m  1  1  1 mag         0.0000000000
    0.3408051731     0.6928540051     0.0956745952 m  1  1  1 mag         0.0000000000
    0.8409455938     0.1932333113     0.0955911659 m  1  1  1 mag         0.0000000000
    0.8337676199     0.6501306088     0.0995870902 m  1  1  1 mag         0.0000000000
    0.3337396048     0.1821110484     0.5671199864 m  1  1  1 mag         0.0000000000
    0.3265638579     0.6393645147     0.5709546897 m  1  1  1 mag         0.0000000000
    0.8263625806     0.1388801705     0.5710575806 m  1  1  1 mag         0.0000000000
    0.8340445708     0.6817955151     0.5669889071 m  1  1  1 mag         0.0000000000
    0.1655220897     0.3179923911     0.4330771349 m  1  1  1 mag         0.0000000000
    0.1732622656     0.8609359943     0.4290150034 m  1  1  1 mag         0.0000000000
    0.6730567668     0.3604526424     0.4291153562 m  1  1  1 mag         0.0000000000
    0.6658272120     0.8177058536     0.4329512302 m  1  1  1 mag         0.0000000000
    0.1663780736     0.3499792633     0.9003802299 m  1  1  1 mag         0.0000000000
    0.1592353109     0.8069053082     0.9043526781 m  1  1  1 mag         0.0000000000
    0.6593819114     0.3072870215     0.9042663299 m  1  1  1 mag         0.0000000000
    0.6661051457     0.8501844788     0.9004864359 m  1  1  1 mag         0.0000000000
    0.0056570340     0.0280808282     0.7625419030 m  1  1  1 mag         0.0000000000
    0.9984257000     0.4854798237     0.7662263999 m  1  1  1 mag         0.0000000000
    0.4981233747     0.9856742237     0.7663261539 m  1  1  1 mag         0.0000000000
    0.5058309405     0.5284776978     0.7624538223 m  1  1  1 mag         0.0000000000
