Ca1
1.0
  -2.2516895899999998    2.1587223400000002   -2.1961148100000001
   2.2516895899999998   -2.1587223400000002   -2.1961148100000001
  -2.1577613200000001   -2.2506871400000001    2.1961148100000001
Ca
1
direct
  -0.0000000000000000    0.5000000000000000   -0.0000000000000000 Ca
