ATOMIC_SPECIES
Ca 40.078000 Ca.upf
Al 26.981500 Al.PD04.PBE.upf
Cr 51.996100 Cr_ONCV_PBE-1.0.upf

LATTICE_CONSTANT
1.889726

LATTICE_VECTORS
    5.15916100000     0.00000000000     0.00000000000
    0.00000000000    12.87810600000     0.00000000000
    0.00000000000     0.00000000000    12.87810600000

ATOMIC_POSITIONS
Cartesian

Ca
0.000000
4
    0.00000000000     6.43905000000     6.43905000000 1 1 1 
    0.00000000000     0.00000000000     0.00000000000 1 1 1 
    2.67681000000     0.00000000000     6.43905000000 1 1 1 
    2.48235000000     6.43905000000     0.00000000000 1 1 1 

Al
0.000000
40
    0.00000000000     2.24331000000     2.24331000000 1 1 1 
    0.00000000000     8.68237000000     4.19574000000 1 1 1 
    0.00000000000     4.19574000000     8.68237000000 1 1 1 
    0.00000000000    10.63479000000    10.63479000000 1 1 1 
    0.00000000000     4.19574000000     4.19574000000 1 1 1 
    0.00000000000    10.63479000000     2.24331000000 1 1 1 
    0.00000000000     2.24331000000    10.63479000000 1 1 1 
    0.00000000000     8.68237000000     8.68237000000 1 1 1 
    2.57958000000     7.90157000000     7.90157000000 1 1 1 
    2.57958000000     1.46251000000    11.41559000000 1 1 1 
    2.57958000000    11.41559000000     1.46251000000 1 1 1 
    2.57958000000     4.97654000000     4.97654000000 1 1 1 
    2.57958000000    11.41559000000    11.41559000000 1 1 1 
    2.57958000000     4.97654000000     7.90157000000 1 1 1 
    2.57958000000     7.90157000000     4.97654000000 1 1 1 
    2.57958000000     1.46251000000     1.46251000000 1 1 1 
    3.86357000000     3.07654000000     6.43905000000 1 1 1 
    3.86357000000     0.00000000000     3.36251000000 1 1 1 
    3.86357000000     0.00000000000     9.51559000000 1 1 1 
    3.86357000000     9.80157000000     6.43905000000 1 1 1 
    1.29559000000     3.36251000000     0.00000000000 1 1 1 
    1.29559000000     9.51559000000     0.00000000000 1 1 1 
    1.29559000000     6.43905000000     3.07654000000 1 1 1 
    1.29559000000     6.43905000000     9.80157000000 1 1 1 
    0.19014000000     1.40638000000     7.84543000000 1 1 1 
    0.19014000000     1.40638000000     5.03267000000 1 1 1 
    0.19014000000    11.47173000000     7.84543000000 1 1 1 
    0.19014000000    11.47173000000     5.03267000000 1 1 1 
    4.96902000000     5.03267000000     1.40638000000 1 1 1 
    4.96902000000     7.84543000000    11.47173000000 1 1 1 
    4.96902000000     7.84543000000     1.40638000000 1 1 1 
    4.96902000000     5.03267000000    11.47173000000 1 1 1 
    2.48376000000     2.24899000000     8.68805000000 1 1 1 
    2.48376000000     2.24899000000     4.19006000000 1 1 1 
    2.48376000000    10.62911000000     8.68805000000 1 1 1 
    2.48376000000    10.62911000000     4.19006000000 1 1 1 
    2.67540000000     4.19006000000     2.24899000000 1 1 1 
    2.67540000000     8.68805000000    10.62911000000 1 1 1 
    2.67540000000     8.68805000000     2.24899000000 1 1 1 
    2.67540000000     4.19006000000    10.62911000000 1 1 1 

Cr
0.000000
8
    1.30944000000     9.53503000000     6.43905000000 1 1 1 
    1.30944000000     0.00000000000     9.78213000000 1 1 1 
    1.30944000000     0.00000000000     3.09597000000 1 1 1 
    1.30944000000     3.34308000000     6.43905000000 1 1 1 
    3.84972000000     9.78213000000     0.00000000000 1 1 1 
    3.84972000000     3.09597000000     0.00000000000 1 1 1 
    3.84972000000     6.43905000000     9.53503000000 1 1 1 
    3.84972000000     6.43905000000     3.34308000000 1 1 1 
