Mo1
1.0
   2.5863489999999998    0.0000000000000000   -0.9144130000000000
  -1.2931750000000000    2.2398440000000002   -0.9144130000000000
   0.0000000000000000    0.0000000000000000    2.7432379999999998
Mo
1
direct
   0.0000000000000000    0.0000000000000000    0.0000000000000000 Mo
