ATOMIC_SPECIES
Er 167.259000 Er.upf
Sn 118.710000 Sn_ONCV_PBE-1.1.upf
Au 196.966500 Au.pbe-n-nc.UPF

LATTICE_CONSTANT
1.889726

LATTICE_VECTORS
    4.74044386000     0.00000000000     0.00000000000
    2.37022193000     4.10534480800     0.00000000000
    2.37022193000     1.36844826900     3.87055620400

ATOMIC_POSITIONS
Cartesian

Er
0.000000
1
    4.74044000000     2.73690000000     1.93528000000 1 1 1 

Sn
0.000000
1
    0.00000000000     0.00000000000     0.00000000000 1 1 1 

Au
0.000000
1
    7.11067000000     4.10534000000     2.90292000000 1 1 1 
