ATOMIC_SPECIES
Cd	1	Cd_ONCV_PBE-1.0.upf
Te	1	Te_ONCV_PBE-1.0.upf

NUMERICAL_ORBITAL
Cd_gga_7au_100Ry_4s2p2d1f.orb
Te_gga_7au_100Ry_2s2p2d1f.orb

LATTICE_CONSTANT
1.889766

LATTICE_VECTORS
0.0	3.241	3.241
3.241	0.0	3.241
3.241	3.241	0.0

ATOMIC_POSITIONS
Direct

Cd
0.0
1
0.0	0.0	0.0	1 1 1

Te
0.0
1
0.25	0.25	0.25	1 1 1
