ATOMIC_SPECIES
K 39.098300 K_ONCV_PBE-1.0.upf
Sm 150.360000 Sm.upf
S 32.065000 S.upf

LATTICE_CONSTANT
1.000000

LATTICE_VECTORS
   14.67128705590     0.00000000000     0.00000000000
   12.57930911967     7.55034078359     0.00000000000
   12.57930915318     3.48535754289     6.69775605863

ATOMIC_POSITIONS
Cartesian

K
0.000000
1
   19.91495266437     5.51784916324     3.34887802931 

Sm
0.000000
1
    0.00000000000     0.00000000000     0.00000000000 

S
0.000000
2
   29.27936170621     8.11245219678     4.92358745626 
   10.55054362253     2.92324612970     1.77416860237 
