Pd1
1.0
   2.3988467099999999    0.0000000000000000    1.3849757300000001
   0.7996155700000001    2.2616559299999999    1.3849757300000001
   0.0000000100000000    0.0000000000000000    2.7699504400000001
Pd
1
direct
   0.0000000000000000    0.0000000000000000    0.0000000000000000 Pd
