ATOMIC_SPECIES
Dy 162.500000 Dy3+_f--core-icmod1.PD04.PBE.UPF
Sn 118.710000 Sn_ONCV_PBE-1.1.upf
Pd 106.420000 Pd_ONCV_PBE-1.0.upf

LATTICE_CONSTANT
1.889726

LATTICE_VECTORS
    4.80807580000     0.00000000000     0.00000000000
    2.40403790000     4.16391578600     0.00000000000
    2.40403790000     1.38797192900     3.92577745200

ATOMIC_POSITIONS
Cartesian

Dy
0.000000
1
    0.00000000000     0.00000000000     0.00000000000 1 1 1 

Sn
0.000000
1
    4.80808000000     2.77594000000     1.96289000000 1 1 1 

Pd
0.000000
2
    2.40404000000     1.38797000000     0.98144000000 1 1 1 
    7.21211000000     4.16392000000     2.94433000000 1 1 1 
