ATOMIC_SPECIES
Na 22.989 Na_ONCV_PBE-1.0.upf upf201
Co 58.933 Co_ONCV_PBE-1.0.upf upf201
O 15.999 O_ONCV_PBE-1.0.upf upf201

NUMERICAL_ORBITAL
Na_gga_8au_100Ry_4s2p1d.orb
Co_gga_8au_100Ry_4s2p2d1f.orb
O_gga_7au_100Ry_2s2p1d.orb

LATTICE_CONSTANT
1.88972612463

LATTICE_VECTORS
    5.8752389291     0.0002718097    -0.0000345396 #latvec1
   -2.9379331404     5.0879246741     0.0000341918 #latvec2
    0.0004629795    -0.0002673875    15.7316220181 #latvec3

ATOMIC_POSITIONS
Direct

Na #label
0 #magnetism
12 #number of atoms
    0.0000005671     0.0000001437     0.9999844360 m  1  1  1 mag         1.0000000000
    0.0000004809     0.5000001112     0.9999844165 m  1  1  1 mag         1.0000000000
    0.5000006318     0.0000002743     0.9999843950 m  1  1  1 mag         1.0000000000
    0.5000006298     0.5000001146     0.9999844103 m  1  1  1 mag         1.0000000000
    0.3333332199     0.1666658485     0.3333660984 m  1  1  1 mag         1.0000000000
    0.3333333470     0.6666659009     0.3333661204 m  1  1  1 mag         1.0000000000
    0.8333334220     0.1666658626     0.3333661067 m  1  1  1 mag         1.0000000000
    0.8333334076     0.6666660320     0.3333660837 m  1  1  1 mag         1.0000000000
    0.1666655614     0.3333346210     0.6666486395 m  1  1  1 mag         1.0000000000
    0.1666655594     0.8333346015     0.6666486394 m  1  1  1 mag         1.0000000000
    0.6666655685     0.3333346240     0.6666486408 m  1  1  1 mag         1.0000000000
    0.6666655439     0.8333346139     0.6666486307 m  1  1  1 mag         1.0000000000

Co #label
0 #magnetism
12 #number of atoms
    0.1666681840     0.3333314544     0.1666870909 m  1  1  1 mag         1.0000000000
    0.1666682887     0.8333314868     0.1666871295 m  1  1  1 mag         1.0000000000
    0.6666681335     0.3333313981     0.1666871165 m  1  1  1 mag         1.0000000000
    0.6666680904     0.8333314757     0.1666871303 m  1  1  1 mag         1.0000000000
    0.9999975233     0.0000002077     0.5000257014 m  1  1  1 mag         1.0000000000
    0.9999974688     0.5000002371     0.5000256793 m  1  1  1 mag         1.0000000000
    0.4999974402     0.0000002295     0.5000256860 m  1  1  1 mag         1.0000000000
    0.4999974815     0.5000001765     0.5000256970 m  1  1  1 mag         1.0000000000
    0.3333344665     0.1666680178     0.8332879564 m  1  1  1 mag         1.0000000000
    0.3333345048     0.6666680848     0.8332879730 m  1  1  1 mag         1.0000000000
    0.8333345081     0.1666680333     0.8332879522 m  1  1  1 mag         1.0000000000
    0.8333345405     0.6666681035     0.8332879566 m  1  1  1 mag         1.0000000000

O #label
0 #magnetism
24 #number of atoms
    0.0000002258     0.9999993844     0.2302983680 m  1  1  1 mag         1.0000000000
    0.0000003647     0.4999994190     0.2302984841 m  1  1  1 mag         1.0000000000
    0.5000001138     0.9999991078     0.2302984755 m  1  1  1 mag         1.0000000000
    0.5000001705     0.4999994140     0.2302984753 m  1  1  1 mag         1.0000000000
    0.3333363199     0.1666635958     0.1030866645 m  1  1  1 mag         1.0000000000
    0.3333361981     0.6666636215     0.1030865479 m  1  1  1 mag         1.0000000000
    0.8333360566     0.1666635727     0.1030866685 m  1  1  1 mag         1.0000000000
    0.8333360275     0.6666632957     0.1030866790 m  1  1  1 mag         1.0000000000
    0.3333294747     0.1666682953     0.5636188023 m  1  1  1 mag         1.0000000000
    0.3333294456     0.6666682630     0.5636187960 m  1  1  1 mag         1.0000000000
    0.8333294799     0.1666683049     0.5636187983 m  1  1  1 mag         1.0000000000
    0.8333294718     0.6666682774     0.5636187940 m  1  1  1 mag         1.0000000000
    0.1666654527     0.3333321667     0.4364251855 m  1  1  1 mag         1.0000000000
    0.1666654216     0.8333321613     0.4364251802 m  1  1  1 mag         1.0000000000
    0.6666654431     0.3333321814     0.4364251725 m  1  1  1 mag         1.0000000000
    0.6666654628     0.8333321579     0.4364251781 m  1  1  1 mag         1.0000000000
    0.1666666419     0.3333359627     0.8968864345 m  1  1  1 mag         1.0000000000
    0.1666666544     0.8333360154     0.8968864341 m  1  1  1 mag         1.0000000000
    0.6666666521     0.3333359801     0.8968864210 m  1  1  1 mag         1.0000000000
    0.6666666801     0.8333360134     0.8968864359 m  1  1  1 mag         1.0000000000
    0.0000023280     0.0000002184     0.7696846507 m  1  1  1 mag         1.0000000000
    0.0000023298     0.5000001860     0.7696846409 m  1  1  1 mag         1.0000000000
    0.5000023207     0.0000002105     0.7696846502 m  1  1  1 mag         1.0000000000
    0.5000022980     0.5000001852     0.7696846406 m  1  1  1 mag         1.0000000000
