ATOMIC_SPECIES
In 114.818 In_ONCV_PBE-1.0.upf
N 14.007 N_ONCV_PBE-1.0.upf

NUMERICAL_ORBITAL
In_gga_7au_100Ry_2s2p2d1f.orb
N_gga_7au_100Ry_2s2p1d.orb

LATTICE_CONSTANT
1.889716

LATTICE_VECTORS
    3.55062     0.00000     0.00000
   -1.77531     3.07493     0.00000
    0.00000     0.00000     5.73256

ATOMIC_POSITIONS
Direct

In
0.0
2
  0.3333333   0.6666667   0.0004769 1 1 1
  0.6666666   0.3333333   0.5004770 1 1 1

N
0.0
2
  0.3333333   0.6666667   0.3795231 1 1 1
  0.6666666   0.3333333   0.8795230 1 1 1

