ATOMIC_SPECIES
Li 6.941 Li_ONCV_PBE-1.0.upf upf201
Mn 54.938 Mn_ONCV_PBE-1.0.upf upf201
O 15.999 O_ONCV_PBE-1.0.upf upf201

NUMERICAL_ORBITAL
Li_gga_7au_100Ry_4s1p.orb
Mn_gga_9au_100Ry_4s2p2d1f.orb
O_gga_7au_100Ry_2s2p1d.orb

LATTICE_CONSTANT
1.88972612463

LATTICE_VECTORS
   11.1313760004     0.0000095718    -0.0104657503 #latvec1
   -0.0000052450     5.7686946820     0.0000050372 #latvec2
   -4.7612954216    -0.0000135452     9.8150099029 #latvec3

ATOMIC_POSITIONS
Direct

Li #label
0 #magnetism
16 #number of atoms
    0.9997346054     0.2500002610     0.2501798232 m  1  1  1 mag         0.0000000000
    0.0002656358     0.2499998622     0.7498194422 m  1  1  1 mag         0.0000000000
    0.9997349753     0.7499997063     0.2501794491 m  1  1  1 mag         0.0000000000
    0.0002657674     0.7500004811     0.7498194915 m  1  1  1 mag         0.0000000000
    0.5001805072     0.2499998586     0.2496796811 m  1  1  1 mag         0.0000000000
    0.4998188410     0.2500002547     0.7503216456 m  1  1  1 mag         0.0000000000
    0.5001804335     0.7500003890     0.2496798957 m  1  1  1 mag         0.0000000000
    0.4998191741     0.7499996937     0.7503213021 m  1  1  1 mag         0.0000000000
    0.2500004202     0.9999994794     0.2499350890 m  1  1  1 mag         0.0000000000
    0.2501527751     0.9999999163     0.7500279705 m  1  1  1 mag         0.0000000000
    0.2500007313     0.4999999605     0.2499350624 m  1  1  1 mag         0.0000000000
    0.2501529254     0.4999993741     0.7500277803 m  1  1  1 mag         0.0000000000
    0.7498472093     0.0000003142     0.2499719868 m  1  1  1 mag         0.0000000000
    0.7500004598     0.0000000194     0.7500644068 m  1  1  1 mag         0.0000000000
    0.7498472905     0.4999999332     0.2499718006 m  1  1  1 mag         0.0000000000
    0.7500007056     0.5000004813     0.7500644255 m  1  1  1 mag         0.0000000000

Mn #label
4 #magnetism
16 #number of atoms
    0.0000078292     0.9999965690     0.0000081742 m  1  1  1 mag         4.0000000000
    0.9999919346     0.0000025818     0.4999923174 m  1  1  1 mag         4.0000000000
    0.0000067802     0.5000038610     0.0000080308 m  1  1  1 mag         4.0000000000
    0.9999924443     0.4999967143     0.4999919121 m  1  1  1 mag         4.0000000000
    0.5000070249     0.0000033140     0.0000076560 m  1  1  1 mag         4.0000000000
    0.4999932493     0.9999966307     0.4999918098 m  1  1  1 mag         4.0000000000
    0.5000076762     0.4999965973     0.0000073628 m  1  1  1 mag         4.0000000000
    0.4999929995     0.5000031761     0.4999923981 m  1  1  1 mag         4.0000000000
    0.2498953810     0.2499970398     0.9997724158 m  1  1  1 mag         4.0000000000
    0.2498826372     0.2500030381     0.5000293255 m  1  1  1 mag         4.0000000000
    0.2498947398     0.7500032963     0.9997726500 m  1  1  1 mag         4.0000000000
    0.2498828837     0.7499957787     0.5000286797 m  1  1  1 mag         4.0000000000
    0.7501198780     0.2500036019     0.0002429081 m  1  1  1 mag         4.0000000000
    0.7501020464     0.2499977817     0.4999552342 m  1  1  1 mag         4.0000000000
    0.7501198172     0.7499967639     0.0002420289 m  1  1  1 mag         4.0000000000
    0.7501014600     0.7500030186     0.4999553066 m  1  1  1 mag         4.0000000000

O #label
0 #magnetism
32 #number of atoms
    0.1375144573     0.9999992350     0.3825209544 m  1  1  1 mag         0.0000000000
    0.1375184358     0.0000001008     0.8823744608 m  1  1  1 mag         0.0000000000
    0.1375151208     0.4999996910     0.3825219261 m  1  1  1 mag         0.0000000000
    0.1375172180     0.5000000484     0.8823731555 m  1  1  1 mag         0.0000000000
    0.6379801445     0.0000000846     0.3824418645 m  1  1  1 mag         0.0000000000
    0.6377374932     0.9999994717     0.8830714996 m  1  1  1 mag         0.0000000000
    0.6379796313     0.5000000663     0.3824412574 m  1  1  1 mag         0.0000000000
    0.6377380998     0.5000007401     0.8830723988 m  1  1  1 mag         0.0000000000
    0.3622616647     0.0000001858     0.1169184548 m  1  1  1 mag         0.0000000000
    0.3620224305     0.9999996961     0.6175661866 m  1  1  1 mag         0.0000000000
    0.3622624698     0.5000001324     0.1169195440 m  1  1  1 mag         0.0000000000
    0.3620217865     0.4999993938     0.6175654516 m  1  1  1 mag         0.0000000000
    0.8624797219     0.0000009391     0.1176191557 m  1  1  1 mag         0.0000000000
    0.8624862616     0.0000001409     0.6174878032 m  1  1  1 mag         0.0000000000
    0.8624792529     0.4999993601     0.1176185999 m  1  1  1 mag         0.0000000000
    0.8624868013     0.5000001329     0.6174886337 m  1  1  1 mag         0.0000000000
    0.3876912084     0.2499994983     0.3825695600 m  1  1  1 mag         0.0000000000
    0.3880201632     0.2500001367     0.8822693050 m  1  1  1 mag         0.0000000000
    0.3876917683     0.7500001799     0.3825702406 m  1  1  1 mag         0.0000000000
    0.3880196226     0.7500000449     0.8822686777 m  1  1  1 mag         0.0000000000
    0.8878809881     0.2499997811     0.3822202411 m  1  1  1 mag         0.0000000000
    0.8873127615     0.2500006384     0.8828775075 m  1  1  1 mag         0.0000000000
    0.8878803685     0.7499998122     0.3822196483 m  1  1  1 mag         0.0000000000
    0.8873132601     0.7499997790     0.8828781625 m  1  1  1 mag         0.0000000000
    0.1126863550     0.2499997540     0.1171160996 m  1  1  1 mag         0.0000000000
    0.1121192339     0.2499996740     0.6177889773 m  1  1  1 mag         0.0000000000
    0.1126857174     0.7500006925     0.1171153395 m  1  1  1 mag         0.0000000000
    0.1121198924     0.7499998788     0.6177898620 m  1  1  1 mag         0.0000000000
    0.6119768362     0.2500002658     0.1177205923 m  1  1  1 mag         0.0000000000
    0.6123112733     0.2500002614     0.6174378848 m  1  1  1 mag         0.0000000000
    0.6119772198     0.7500001681     0.1177210971 m  1  1  1 mag         0.0000000000
    0.6123109069     0.7499996919     0.6174375677 m  1  1  1 mag         0.0000000000
