ATOMIC_SPECIES
Ta 180.947900 Ta_ONCV_PBE-1.0.upf
Cr 51.996100 Cr_ONCV_PBE-1.0.upf

LATTICE_CONSTANT
1.889726

LATTICE_VECTORS
    4.90547127000     0.00000000000     0.00000000000
    2.45273563500     4.24826273700     0.00000000000
    2.45273563500     1.41608757900     4.00530052000

ATOMIC_POSITIONS
Cartesian

Ta
0.000000
2
    4.90547000000     2.83218000000     2.00265000000 1 1 1 
    2.45274000000     1.41609000000     1.00133000000 1 1 1 

Cr
0.000000
4
    6.13184000000     4.95631000000     3.50464000000 1 1 1 
    7.35821000000     4.24826000000     1.50199000000 1 1 1 
    8.58457000000     4.95631000000     3.50464000000 1 1 1 
    7.35821000000     2.83218000000     3.50464000000 1 1 1 
