Pr4
1.0
   3.7483073899999999    0.0000000100000000   -0.0000000000000000
  -1.8741531700000000    3.2461272800000001   -0.0000000000000000
   0.0000000000000000    0.0000000000000000   12.0142467100000001
Pr
4
direct
   0.0000000000000000    0.0000000000000000    0.0000000000000000 Pr
   0.0000000000000000    0.0000000000000000    0.5000000000000000 Pr
   0.3333330000000000    0.6666670000000000    0.2500000000000000 Pr
   0.6666670000000000    0.3333330000000000    0.7500000000000000 Pr
