Sc2
1.0
   3.2912259100000001    0.0000000000000000   -0.0000000000000000
  -1.6456119400000000    2.8502836199999999    0.0000000000000000
   0.0000000000000000   -0.0000000000000000    5.3325723900000002
Sc
2
direct
   0.3333330000000000    0.6666670000000000    0.2500000000000000 Sc
   0.6666670000000000    0.3333330000000000    0.7500000000000000 Sc
