Os2
1.0
   2.7461339300000001   -0.0000000000000000    0.0000000000000000
  -1.3730669700000000    2.3782224400000000    0.0000000000000000
   0.0000000000000000   -0.0000000000000000    4.3263142200000004
Os
2
direct
   0.3333330000000000    0.6666670000000000    0.2500000000000000 Os
   0.6666670000000000    0.3333330000000000    0.7500000000000000 Os
