ATOMIC_SPECIES
Sr 87.620000 Sr_ONCV_PBE-1.0.upf
Si 28.085500 Si.upf

LATTICE_CONSTANT
1.889726

LATTICE_VECTORS
    5.14963200000     0.00000000000     0.00000000000
    0.00000000000     8.13175500000     0.00000000000
    0.00000000000     0.00000000000     9.61716400000

ATOMIC_POSITIONS
Cartesian

Sr
0.000000
8
    3.86222000000     7.97873000000     7.95051000000 1 1 1 
    1.28741000000     0.15302000000     1.66665000000 1 1 1 
    3.86222000000     3.91285000000     6.47524000000 1 1 1 
    1.28741000000     4.21890000000     3.14193000000 1 1 1 
    1.28741000000     5.28959000000     8.86844000000 1 1 1 
    3.86222000000     2.84216000000     0.74873000000 1 1 1 
    1.28741000000     1.22372000000     5.55731000000 1 1 1 
    3.86222000000     6.90804000000     4.05986000000 1 1 1 

Si
0.000000
4
    1.28741000000     2.05167000000     8.63183000000 1 1 1 
    3.86222000000     6.08008000000     0.98534000000 1 1 1 
    1.28741000000     6.11755000000     5.79392000000 1 1 1 
    3.86222000000     2.01420000000     3.82325000000 1 1 1 
