ATOMIC_SPECIES
Sc 44.955900 Sc_ONCV_PBE-1.0.upf
Fe 55.845000 Fe.pbe-n-nc.UPF
Si 28.085500 Si.upf

LATTICE_CONSTANT
1.889726

LATTICE_VECTORS
    3.98335799700     0.00000000000     0.00000000000
    1.99167899800     4.94034399500     0.00000000000
    1.99167899800     0.44342399400     8.26238500000

ATOMIC_POSITIONS
Cartesian

Sc
0.000000
4
    3.98336000000     1.34290000000     0.89194000000 1 1 1 
    1.99168000000     3.45862000000     2.70839000000 1 1 1 
    3.98336000000     4.04087000000     7.37044000000 1 1 1 
    5.97504000000     1.92515000000     5.55400000000 1 1 1 

Fe
0.000000
2
    5.97504000000     4.79632000000     5.17757000000 1 1 1 
    1.99168000000     0.58745000000     3.08482000000 1 1 1 

Si
0.000000
4
    3.98336000000     1.07818000000     7.22111000000 1 1 1 
    3.98336000000     3.84599000000     4.66931000000 1 1 1 
    3.98336000000     4.30559000000     1.04128000000 1 1 1 
    3.98336000000     1.53778000000     3.59308000000 1 1 1 
