ATOMIC_SPECIES
Hf 178.490000 Hf_ONCV_PBE-1.1.upf
In 114.818000 In.PD04.PBE.UPF
Rh 102.905500 Rh_ONCV_PBE-1.0.upf

LATTICE_CONSTANT
1.889726

LATTICE_VECTORS
    3.39888200000     0.00000000000     0.00000000000
    0.00000000000     7.72256200000     0.00000000000
    0.00000000000     0.00000000000    17.64890100000

ATOMIC_POSITIONS
Cartesian

Hf
0.000000
10
    0.00000000000     2.00024000000     3.91504000000 1 1 1 
    0.00000000000     4.91156000000     1.41186000000 1 1 1 
    0.00000000000     5.86152000000     4.90941000000 1 1 1 
    0.00000000000     6.67229000000    10.23631000000 1 1 1 
    0.00000000000     1.86104000000    12.73949000000 1 1 1 
    0.00000000000     5.72232000000    13.73386000000 1 1 1 
    0.00000000000     1.05028000000     7.41259000000 1 1 1 
    0.00000000000     0.00000000000     0.00000000000 1 1 1 
    0.00000000000     2.81100000000    16.23704000000 1 1 1 
    0.00000000000     3.86128000000     8.82445000000 1 1 1 

In
0.000000
8
    1.69944000000     6.17220000000     7.63657000000 1 1 1 
    1.69944000000     5.41164000000    16.46102000000 1 1 1 
    1.69944000000     0.48336000000    15.01978000000 1 1 1 
    1.69944000000     4.34464000000    11.45357000000 1 1 1 
    1.69944000000     1.55036000000    10.01233000000 1 1 1 
    1.69944000000     7.23921000000     2.62912000000 1 1 1 
    1.69944000000     3.37793000000     6.19533000000 1 1 1 
    1.69944000000     2.31092000000     1.18788000000 1 1 1 

Rh
0.000000
4
    1.69944000000     3.48905000000    14.23705000000 1 1 1 
    1.69944000000     4.23352000000     3.41185000000 1 1 1 
    1.69944000000     7.35033000000    12.23630000000 1 1 1 
    1.69944000000     0.37224000000     5.41260000000 1 1 1 
