ATOMIC_SPECIES
Er 167.259000 Er.upf
Mn 54.938000 Mn.upf
Si 28.085500 Si.upf

LATTICE_CONSTANT
1.889726

LATTICE_VECTORS
    3.87674600000     0.00000000000     0.00000000000
    0.00000000000     3.87674600000     0.00000000000
   -1.93837300000    -1.93837300000     5.13827399900

ATOMIC_POSITIONS
Cartesian

Er
0.000000
1
    0.00000000000     0.00000000000     0.00000000000 1 1 1 

Mn
0.000000
2
    1.93837000000     0.00000000000     2.56914000000 1 1 1 
    0.00000000000     1.93837000000     2.56914000000 1 1 1 

Si
0.000000
2
    1.93837000000     1.93837000000     1.22733000000 1 1 1 
    0.00000000000     0.00000000000     3.91095000000 1 1 1 
