ATOMIC_SPECIES
Ho 164.930300 Ho.upf
Ir 192.217000 Ir_ONCV_PBE-1.0.upf

LATTICE_CONSTANT
1.889726

LATTICE_VECTORS
    6.35996000000     0.00000000000     0.00000000000
    0.00000000000    10.84634900000     0.00000000000
    0.00000000000     0.00000000000    10.84634900000

ATOMIC_POSITIONS
Cartesian

Ho
0.000000
20
    2.40478000000     3.15688000000     0.95343000000 1 1 1 
    5.58476000000     3.15688000000     9.89292000000 1 1 1 
    5.58476000000     7.68946000000     0.95343000000 1 1 1 
    2.40478000000     7.68946000000     9.89292000000 1 1 1 
    5.58476000000     6.37660000000     8.58006000000 1 1 1 
    2.40478000000     6.37660000000     2.26629000000 1 1 1 
    2.40478000000     4.46975000000     8.58006000000 1 1 1 
    5.58476000000     4.46975000000     2.26629000000 1 1 1 
    3.95518000000     2.26629000000     4.46975000000 1 1 1 
    0.77520000000     2.26629000000     6.37660000000 1 1 1 
    0.77520000000     8.58006000000     4.46975000000 1 1 1 
    3.95518000000     8.58006000000     6.37660000000 1 1 1 
    0.77520000000     9.89292000000     7.68946000000 1 1 1 
    3.95518000000     9.89292000000     3.15688000000 1 1 1 
    3.95518000000     0.95343000000     7.68946000000 1 1 1 
    0.77520000000     0.95343000000     3.15688000000 1 1 1 
    3.17998000000     0.00000000000     0.00000000000 1 1 1 
    0.00000000000     0.00000000000     0.00000000000 1 1 1 
    0.00000000000     5.42317000000     5.42317000000 1 1 1 
    3.17998000000     5.42317000000     5.42317000000 1 1 1 

Ir
0.000000
12
    1.58999000000     9.17821000000     1.66814000000 1 1 1 
    4.76997000000     9.17821000000     9.17821000000 1 1 1 
    4.76997000000     1.66814000000     1.66814000000 1 1 1 
    1.58999000000     1.66814000000     9.17821000000 1 1 1 
    4.76997000000     7.09131000000     3.75504000000 1 1 1 
    1.58999000000     7.09131000000     7.09131000000 1 1 1 
    1.58999000000     3.75504000000     3.75504000000 1 1 1 
    4.76997000000     3.75504000000     7.09131000000 1 1 1 
    0.76059000000     5.42317000000     0.00000000000 1 1 1 
    3.94057000000     5.42317000000     0.00000000000 1 1 1 
    5.59937000000     0.00000000000     5.42317000000 1 1 1 
    2.41939000000     0.00000000000     5.42317000000 1 1 1 
