Ge2
1.0
   3.4751244799999998    0.0000000000000000    2.0063646600000000
   1.1583748300000001    3.2763781000000001    2.0063646600000000
   0.0000000000000000    0.0000000000000000    4.0127283100000000
Ge
2
direct
   0.8750000000000000    0.8750000000000000    0.8750000000000000 Ge
   0.1250000000000000    0.1250000000000000    0.1250000000000000 Ge
