ATOMIC_SPECIES
Al 26.982 Al_ONCV_PBE-1.0.upf
As 74.922 As_ONCV_PBE-1.0.upf

NUMERICAL_ORBITAL
Al_gga_7au_100Ry_4s4p1d.orb
As_gga_7au_100Ry_2s2p1d.orb

LATTICE_CONSTANT
1.889716

LATTICE_VECTORS
    0.00000     2.83790     2.83790
    2.83790     0.00000     2.83790
    2.83790     2.83790     0.00000

ATOMIC_POSITIONS
Direct

Al
0.0
1
  0.0000000   0.0000000   0.0000000 1 1 1

As
0.0
1
  0.7500000   0.7500000   0.7500000 1 1 1

