ATOMIC_SPECIES
Ce 140.116000 Ce-sp.PD04.PBE.UPF
Mg 24.305000 Mg.PD04.PBE.UPF
Ge 72.640000 Ge-low.PD04.PBE.UPF

LATTICE_CONSTANT
1.889726

LATTICE_VECTORS
   10.12142606000     0.00000000000     0.00000000000
    5.06071303000     8.76541209000     0.00000000000
    5.06071303000     2.92180403000     8.26410977200

ATOMIC_POSITIONS
Cartesian

Ce
0.000000
6
   13.09567000000     7.56079000000     1.70360000000 1 1 1 
   10.12143000000     9.27797000000     6.56051000000 1 1 1 
    7.14718000000     7.56079000000     1.70360000000 1 1 1 
    7.14718000000     4.12643000000     6.56051000000 1 1 1 
   10.12143000000     2.40925000000     1.70360000000 1 1 1 
   13.09567000000     4.12643000000     6.56051000000 1 1 1 

Mg
0.000000
23
    5.06071000000     4.83718000000     1.38884000000 1 1 1 
    3.40194000000     1.96412000000     1.38884000000 1 1 1 
    5.06071000000     2.92181000000     4.09759000000 1 1 1 
    6.71947000000     1.96412000000     1.38884000000 1 1 1 
   15.18214000000     6.85003000000     6.87527000000 1 1 1 
   16.84091000000     9.72310000000     6.87527000000 1 1 1 
   15.18214000000     8.76541000000     4.16652000000 1 1 1 
   13.52338000000     9.72310000000     6.87527000000 1 1 1 
   10.12143000000     8.68871000000     3.12616000000 1 1 1 
    7.65750000000     4.42105000000     3.12616000000 1 1 1 
   10.12143000000     5.84361000000     7.14974000000 1 1 1 
   12.58537000000     4.42105000000     3.12616000000 1 1 1 
   10.12142000000     2.99850000000     5.13795000000 1 1 1 
   12.58536000000     7.26616000000     5.13795000000 1 1 1 
   10.12142000000     5.84361000000     1.11437000000 1 1 1 
    7.65749000000     7.26616000000     5.13795000000 1 1 1 
    7.59107000000     4.38271000000     0.00000000000 1 1 1 
   15.18214000000     5.84361000000     4.13205000000 1 1 1 
    7.59107000000     7.30451000000     8.26411000000 1 1 1 
   12.65178000000     1.46090000000     4.13205000000 1 1 1 
   15.18214000000    11.68722000000     8.26411000000 1 1 1 
    7.59107000000     1.46090000000     4.13205000000 1 1 1 
   10.12143000000     5.84361000000     4.13205000000 1 1 1 

Ge
0.000000
1
    0.00000000000     0.00000000000     0.00000000000 1 1 1 
