ATOMIC_SPECIES
Gd 157.250000 Gd3+_f--core-icmod1.PD04.PBE.UPF
Cl 35.453000 Cl.PD03.PBE.UPF
O 15.999400 O.upf

LATTICE_CONSTANT
1.000000

LATTICE_VECTORS
    7.50153916924     0.00000000000     0.00000000000
    0.00000000000     7.50153916924     0.00000000000
    0.00000000000     0.00000000000    12.75186694797

ATOMIC_POSITIONS
Cartesian

Gd
0.000000
2
    0.00000000000     3.75076958462    10.57572259770 
    3.75076958462     0.00000000000     2.17614435027 

Cl
0.000000
2
    3.75076958462     0.00000000000     8.00157972811 
    0.00000000000     3.75076958462     4.75028721986 

O
0.000000
2
    0.00000000000     0.00000000000     0.00000000000 
    3.75076958462     3.75076958462     0.00000000000 
