ATOMIC_SPECIES
B	1	B_ONCV_PBE-1.0.upf
N	1	N_ONCV_PBE-1.0.upf

NUMERICAL_ORBITAL
B_gga_8au_100Ry_2s2p1d.orb
N_gga_7au_100Ry_2s2p1d.orb

LATTICE_CONSTANT
1.889766

LATTICE_VECTORS
0.0	1.8075	1.8075
1.8075	0.0	1.8075
1.8075	1.8075	0.0

ATOMIC_POSITIONS
Direct

B
0.0
1
0.0	0.0	0.0	1 1 1

N
0.0
1
0.25	0.25	0.25	1 1 1
