ATOMIC_SPECIES
Al 26.982 Al_ONCV_PBE-1.0.upf
N 14.007 N_ONCV_PBE-1.0.upf

NUMERICAL_ORBITAL
Al_gga_7au_100Ry_4s4p1d.orb
N_gga_7au_100Ry_2s2p1d.orb

LATTICE_CONSTANT
1.889716

LATTICE_VECTORS
    3.12859     0.00000     0.00000
   -1.56429     2.70944     0.00000
    0.00000     0.00000     5.01695

ATOMIC_POSITIONS
Direct

Al
0.0
2
  0.3333333   0.6666667   0.9992870 1 1 1
  0.6666666   0.3333333   0.4992870 1 1 1

N
0.0
2
  0.3333333   0.6666667   0.3807130 1 1 1
  0.6666666   0.3333333   0.8807130 1 1 1

