Tb2
1.0
   3.6724754300000000   -0.0000000200000000    0.0000000000000000
  -1.8362382500000001    3.1804578900000000   -0.0000000000000000
   0.0000000000000000    0.0000000000000000    5.6014305499999999
Tb
2
direct
   0.3333330000000000    0.6666670000000000    0.2500000000000000 Tb
   0.6666670000000000    0.3333330000000000    0.7500000000000000 Tb
