ATOMIC_SPECIES
V 50.941500 V.upf
Sn 118.710000 Sn_ONCV_PBE-1.1.upf
Rh 102.905500 Rh_ONCV_PBE-1.0.upf

LATTICE_CONSTANT
1.889726

LATTICE_VECTORS
    4.46968278000     0.00000000000     0.00000000000
    2.23484139000     3.87085883400     0.00000000000
    2.23484139000     1.29028627800     3.64948070800

ATOMIC_POSITIONS
Cartesian

V
0.000000
1
    4.46968000000     2.58057000000     1.82474000000 1 1 1 

Sn
0.000000
1
    0.00000000000     0.00000000000     0.00000000000 1 1 1 

Rh
0.000000
2
    6.70452000000     3.87086000000     2.73711000000 1 1 1 
    2.23484000000     1.29029000000     0.91237000000 1 1 1 
