Er2
1.0
   3.5884967799999998    0.0000000100000000    0.0000000000000000
  -1.7942478700000000    3.1077292399999998    0.0000000000000000
   0.0000000000000000   -0.0000000000000000    5.5069713800000004
Er
2
direct
   0.3333330000000000    0.6666670000000000    0.2500000000000000 Er
   0.6666670000000000    0.3333330000000000    0.7500000000000000 Er
