Sm3
1.0
   3.5711710000000001   -0.0110629600000000    8.2768670300000000
   1.7005024200000001    3.1403304200000002    8.2768670300000000
  -0.0186377300000000   -0.0110629600000000    9.0144020099999995
Sm
3
direct
   0.0000000000000000   -0.0000000000000000    0.0000000000000000 Sm
   0.2224578900000000    0.2224578900000000    0.2224578900000000 Sm
   0.7775421100000000    0.7775421100000000    0.7775421100000000 Sm
