Tm2
1.0
   3.5643200700000000    0.0000000100000000    0.0000000000000000
  -1.7821595200000000    3.0867914999999999    0.0000000000000000
   0.0000000000000000    0.0000000000000000    5.4895726199999997
Tm
2
direct
   0.3333330000000000    0.6666670000000000    0.2500000000000000 Tm
   0.6666670000000000    0.3333330000000000    0.7500000000000000 Tm
