ATOMIC_SPECIES
Na 22.989 Na_ONCV_PBE-1.0.upf upf201
Mn 54.938 Mn_ONCV_PBE-1.0.upf upf201
O 15.999 O_ONCV_PBE-1.0.upf upf201

NUMERICAL_ORBITAL
Na_gga_8au_100Ry_4s2p1d.orb
Mn_gga_9au_100Ry_4s2p2d1f.orb
O_gga_7au_100Ry_2s2p1d.orb

LATTICE_CONSTANT
1.88972612463

LATTICE_VECTORS
    5.8936352166     0.0001755352     0.0011373874 #latvec1
   -2.9467779519     5.8423656597    -0.0251074449 #latvec2
    0.0016823008    -1.2326841481    16.2310572031 #latvec3

ATOMIC_POSITIONS
Direct

Na #label
0 #magnetism
12 #number of atoms
    0.0000108002     0.9999948784     0.9999994967 m  1  1  1 mag         0.0000000000
    0.0000108204     0.4999949040     0.9999994886 m  1  1  1 mag         0.0000000000
    0.5000108093     0.9999948784     0.9999994939 m  1  1  1 mag         0.0000000000
    0.5000108187     0.4999948946     0.9999994895 m  1  1  1 mag         0.0000000000
    0.3331735119     0.1660815383     0.3334241745 m  1  1  1 mag         0.0000000000
    0.3331734921     0.6660815109     0.3334241775 m  1  1  1 mag         0.0000000000
    0.8331734888     0.1660815089     0.3334241786 m  1  1  1 mag         0.0000000000
    0.8331735064     0.6660815288     0.3334241769 m  1  1  1 mag         0.0000000000
    0.1668186836     0.3339212681     0.6665764833 m  1  1  1 mag         0.0000000000
    0.1668187268     0.8339213203     0.6665764725 m  1  1  1 mag         0.0000000000
    0.6668186846     0.3339212211     0.6665764913 m  1  1  1 mag         0.0000000000
    0.6668186812     0.8339212124     0.6665764868 m  1  1  1 mag         0.0000000000

Mn #label
4 #magnetism
12 #number of atoms
    0.1664717988     0.3326002954     0.1667150892 m  1  1  1 mag         4.0000000000
    0.1664718158     0.8326002918     0.1667150918 m  1  1  1 mag         4.0000000000
    0.6664716391     0.3326002669     0.1667150923 m  1  1  1 mag         4.0000000000
    0.6664716327     0.8326002682     0.1667150931 m  1  1  1 mag         4.0000000000
    0.9999917232     0.0000056552     0.5000010275 m  1  1  1 mag         4.0000000000
    0.9999916901     0.5000056607     0.5000010313 m  1  1  1 mag         4.0000000000
    0.4999917331     0.0000056577     0.5000010282 m  1  1  1 mag         4.0000000000
    0.4999917614     0.5000056482     0.5000010343 m  1  1  1 mag         4.0000000000
    0.3335353554     0.1673935076     0.8332839151 m  1  1  1 mag         4.0000000000
    0.3335353170     0.6673935657     0.8332838918 m  1  1  1 mag         4.0000000000
    0.8335349539     0.1673934663     0.8332839187 m  1  1  1 mag         4.0000000000
    0.8335350299     0.6673934947     0.8332839006 m  1  1  1 mag         4.0000000000

O #label
0 #magnetism
24 #number of atoms
    0.9839490396     0.9677749528     0.2360134246 m  1  1  1 mag         0.0000000000
    0.9839490299     0.4677749478     0.2360134210 m  1  1  1 mag         0.0000000000
    0.4839490235     0.9677749244     0.2360134115 m  1  1  1 mag         0.0000000000
    0.4839490235     0.4677749307     0.2360134094 m  1  1  1 mag         0.0000000000
    0.3489474421     0.1973498368     0.0974199311 m  1  1  1 mag         0.0000000000
    0.3489474513     0.6973498404     0.0974199325 m  1  1  1 mag         0.0000000000
    0.8489474363     0.1973498091     0.0974199204 m  1  1  1 mag         0.0000000000
    0.8489474467     0.6973498199     0.0974199183 m  1  1  1 mag         0.0000000000
    0.3175715529     0.1354855119     0.5691267298 m  1  1  1 mag         0.0000000000
    0.3175715550     0.6354855157     0.5691267317 m  1  1  1 mag         0.0000000000
    0.8175715365     0.1354854518     0.5691267412 m  1  1  1 mag         0.0000000000
    0.8175715407     0.6354854598     0.5691267368 m  1  1  1 mag         0.0000000000
    0.1824118037     0.3645270889     0.4308748072 m  1  1  1 mag         0.0000000000
    0.1824118200     0.8645271129     0.4308748043 m  1  1  1 mag         0.0000000000
    0.6824118191     0.3645270945     0.4308748141 m  1  1  1 mag         0.0000000000
    0.6824118190     0.8645270938     0.4308748075 m  1  1  1 mag         0.0000000000
    0.1510619562     0.3026436407     0.9025792146 m  1  1  1 mag         0.0000000000
    0.1510619639     0.8026436583     0.9025791911 m  1  1  1 mag         0.0000000000
    0.6510619386     0.3026435796     0.9025791823 m  1  1  1 mag         0.0000000000
    0.6510619424     0.8026435983     0.9025791732 m  1  1  1 mag         0.0000000000
    0.0160565965     0.0322218238     0.7639857574 m  1  1  1 mag         0.0000000000
    0.0160566110     0.5322218534     0.7639857447 m  1  1  1 mag         0.0000000000
    0.5160566176     0.0322218673     0.7639857887 m  1  1  1 mag         0.0000000000
    0.5160566138     0.5322218688     0.7639857667 m  1  1  1 mag         0.0000000000
