ATOMIC_SPECIES
Al	1	Al_ONCV_PBE-1.0.upf
As	1	As_ONCV_PBE-1.0.upf

NUMERICAL_ORBITAL
Al_gga_7au_100Ry_4s4p1d.orb
As_gga_7au_100Ry_2s2p1d.orb

LATTICE_CONSTANT
1.889766

LATTICE_VECTORS
0.0	2.83	2.83
2.83	0.0	2.83
2.83	2.83	0.0

ATOMIC_POSITIONS
Direct

Al
0.0
1
0.0	0.0	0.0	1 1 1

As
0.0
1
0.25	0.25	0.25	1 1 1
