ATOMIC_SPECIES
Ti 47.867000 Ti_ONCV_PBE-1.0.upf
Au 196.966500 Au.pbe-n-nc.UPF

LATTICE_CONSTANT
1.889726

LATTICE_VECTORS
    3.46667199700     0.00000000000     0.00000000000
    0.00000000000     3.46667199700     0.00000000000
   -1.73333599800    -1.73333599900     4.31026699600

ATOMIC_POSITIONS
Cartesian

Ti
0.000000
1
    0.00000000000     0.00000000000     0.00000000000 1 1 1 

Au
0.000000
2
    1.73334000000     1.73334000000     1.41532000000 1 1 1 
    0.00000000000     0.00000000000     2.89495000000 1 1 1 
