Ag1
1.0
   2.5133954500000000    0.0000000100000000    1.4511086900000001
   0.8377991700000000    2.3696512300000001    1.4511086900000001
   0.0000000000000000   -0.0000000000000000    2.9022173800000002
Ag
1
direct
   0.0000000000000000   -0.0000000000000000   -0.0000000000000000 Ag
