ATOMIC_SPECIES
Li 6.941000 Li.upf
Dy 162.500000 Dy3+_f--core-icmod1.PD04.PBE.UPF
Se 78.960000 Se.PD04.PBE.UPF

LATTICE_CONSTANT
1.000000

LATTICE_VECTORS
   13.06819715199     0.00000000000     0.00000000000
   10.80625291061     7.34865122558     0.00000000000
   10.80625220369     3.32620765263     6.55278854413

ATOMIC_POSITIONS
Cartesian

Li
0.000000
1
   17.34035113315     5.33742943911     3.27639427206 

Dy
0.000000
1
    0.00000000000     0.00000000000     0.00000000000 

Se
0.000000
2
    8.63570294852     2.65810390983     1.63168366422 
   26.04499931777     8.01675496839     4.92110487991 
