ATOMIC_SPECIES
Ge 72.640000 Ge-low.PD04.PBE.UPF
W 183.840000 W_ONCV_PBE_FR-1.0.upf

LATTICE_CONSTANT
1.889726

LATTICE_VECTORS
    3.49338100000     0.00000000000     0.00000000000
    0.00000000000     6.43418300000     0.00000000000
    0.00000000000     0.00000000000     8.62226100000

ATOMIC_POSITIONS
Cartesian

Ge
0.000000
8
    0.87335000000     5.56920000000     8.27338000000 1 1 1 
    0.87335000000     2.35211000000     4.66001000000 1 1 1 
    2.62004000000     0.86498000000     0.34888000000 1 1 1 
    2.62004000000     4.08207000000     3.96225000000 1 1 1 
    0.87335000000     6.03356000000     3.17303000000 1 1 1 
    0.87335000000     2.81647000000     1.13810000000 1 1 1 
    2.62004000000     0.40062000000     5.44923000000 1 1 1 
    2.62004000000     3.61772000000     7.48416000000 1 1 1 

W
0.000000
4
    0.87335000000     1.61267000000     7.14668000000 1 1 1 
    0.87335000000     4.82976000000     5.78671000000 1 1 1 
    2.62004000000     4.82151000000     1.47558000000 1 1 1 
    2.62004000000     1.60442000000     2.83555000000 1 1 1 
