ATOMIC_SPECIES
B 10.811 B_ONCV_PBE-1.0.upf
N 14.007 N_ONCV_PBE-1.0.upf

NUMERICAL_ORBITAL
B_gga_8au_100Ry_2s2p1d.orb
N_gga_7au_100Ry_2s2p1d.orb

LATTICE_CONSTANT
1.889716

LATTICE_VECTORS
    0.00000     1.81300     1.81300
    1.81300     0.00000     1.81300
    1.81300     1.81300     0.00000

ATOMIC_POSITIONS
Direct

B
0.0
1
  0.0000000   0.0000000   0.0000000 1 1 1

N
0.0
1
  0.7500000   0.7500000   0.7500000 1 1 1

