ATOMIC_SPECIES
Li 6.941 Li_ONCV_PBE-1.0.upf upf201
Mn 54.938 Mn_ONCV_PBE-1.0.upf upf201
O 15.999 O_ONCV_PBE-1.0.upf upf201

NUMERICAL_ORBITAL
Li_gga_7au_100Ry_4s1p.orb
Mn_gga_9au_100Ry_4s2p2d1f.orb
O_gga_7au_100Ry_2s2p1d.orb

LATTICE_CONSTANT
1.88972612463

LATTICE_VECTORS
    6.1264732814    -0.1424176943     0.0674968643 #latvec1
   -3.1960605217     5.2288436314    -0.0680001503 #latvec2
    0.2033627151    -0.1150919109    14.7689408912 #latvec3

ATOMIC_POSITIONS
Direct

Li #label
0 #magnetism
6 #number of atoms
    0.0086270644     0.5086698719     0.0000054537 m  1  1  1 mag         0.0000000000
    0.5091129841     0.0086589784     0.0000136587 m  1  1  1 mag         0.0000000000
    0.3205206073     0.1540806071     0.3333126216 m  1  1  1 mag         0.0000000000
    0.8205319157     0.6539150818     0.3333392578 m  1  1  1 mag         0.0000000000
    0.1740208593     0.3406890613     0.6667289082 m  1  1  1 mag         0.0000000000
    0.6742115644     0.8409803271     0.6666472314 m  1  1  1 mag         0.0000000000

Mn #label
4 #magnetism
12 #number of atoms
    0.1636071465     0.3326410605     0.1666021274 m  1  1  1 mag         4.0000000000
    0.1634042901     0.8325516639     0.1664138058 m  1  1  1 mag         4.0000000000
    0.6634193249     0.3325746886     0.1664165619 m  1  1  1 mag         4.0000000000
    0.6636019745     0.8326363089     0.1666241139 m  1  1  1 mag         4.0000000000
    0.4994312447     0.4970187679     0.5002633147 m  1  1  1 mag         4.0000000000
    0.4994470053     0.9971810774     0.5000545285 m  1  1  1 mag         4.0000000000
    0.9994641962     0.4971768037     0.5000542122 m  1  1  1 mag         4.0000000000
    0.9994284042     0.9970009957     0.5002503991 m  1  1  1 mag         4.0000000000
    0.3363165118     0.1695605717     0.8333504689 m  1  1  1 mag         4.0000000000
    0.3366780809     0.6699602433     0.8333271480 m  1  1  1 mag         4.0000000000
    0.8366526346     0.1699080547     0.8333283393 m  1  1  1 mag         4.0000000000
    0.8363042499     0.6695530195     0.8333077159 m  1  1  1 mag         4.0000000000

O #label
0 #magnetism
24 #number of atoms
    0.0023464233     0.9950961848     0.2306140396 m  1  1  1 mag         0.0000000000
    0.9701616465     0.5251446498     0.2407898733 m  1  1  1 mag         0.0000000000
    0.4701575293     0.0251491978     0.2407971516 m  1  1  1 mag         0.0000000000
    0.5023044051     0.4950508314     0.2306218521 m  1  1  1 mag         0.0000000000
    0.3566998250     0.1396886881     0.0921210818 m  1  1  1 mag         0.0000000000
    0.3250583829     0.6702167154     0.1024069347 m  1  1  1 mag         0.0000000000
    0.8250445445     0.1702140555     0.1024075110 m  1  1  1 mag         0.0000000000
    0.8566377319     0.6397387188     0.0921483026 m  1  1  1 mag         0.0000000000
    0.3065422160     0.1902086498     0.5745323004 m  1  1  1 mag         0.0000000000
    0.3368744527     0.6584683148     0.5642583577 m  1  1  1 mag         0.0000000000
    0.8368813427     0.1584303998     0.5642592136 m  1  1  1 mag         0.0000000000
    0.8065795664     0.6902002009     0.5745198008 m  1  1  1 mag         0.0000000000
    0.1920064109     0.3037736935     0.4258846575 m  1  1  1 mag         0.0000000000
    0.1621096764     0.8361358580     0.4360287677 m  1  1  1 mag         0.0000000000
    0.6621130518     0.3361464713     0.4360428237 m  1  1  1 mag         0.0000000000
    0.6919846448     0.8037547427     0.4258840560 m  1  1  1 mag         0.0000000000
    0.1438227662     0.3629432479     0.9076653917 m  1  1  1 mag         0.0000000000
    0.1744232856     0.8314847232     0.8974209082 m  1  1  1 mag         0.0000000000
    0.6744506974     0.3313730585     0.8974799161 m  1  1  1 mag         0.0000000000
    0.6438983593     0.8628618667     0.9076300704 m  1  1  1 mag         0.0000000000
    0.9978734119     0.0074687683     0.7691725690 m  1  1  1 mag         0.0000000000
    0.0296507787     0.4771814093     0.7590140817 m  1  1  1 mag         0.0000000000
    0.5296973227     0.9771332168     0.7590070910 m  1  1  1 mag         0.0000000000
    0.4979021607     0.5073794728     0.7692410091 m  1  1  1 mag         0.0000000000
