Ho2
1.0
   3.6150793200000000   -0.0000000200000000   -0.0000000000000000
  -1.8075406999999999    3.1307512800000001   -0.0000000000000000
   0.0000000000000000   -0.0000000000000000    5.5424784599999999
Ho
2
direct
   0.3333330000000000    0.6666670000000000    0.2500000000000000 Ho
   0.6666670000000000    0.3333330000000000    0.7500000000000000 Ho
