ATOMIC_SPECIES
Ho 164.930300 Ho.upf
Ge 72.640000 Ge-low.PD04.PBE.UPF
Rh 102.905500 Rh_ONCV_PBE-1.0.upf

LATTICE_CONSTANT
1.889726

LATTICE_VECTORS
    4.14270199900     0.00000000000     0.00000000000
    0.00000000100     4.14270199900     0.00000000000
   -2.07135100000    -2.07135099900     5.17168199900

ATOMIC_POSITIONS
Cartesian

Ho
0.000000
1
    0.00000000000     0.00000000000     0.00000000000 1 1 1 

Ge
0.000000
2
    0.00000000000     0.00000000000     3.91650000000 1 1 1 
    2.07135000000     2.07135000000     1.25518000000 1 1 1 

Rh
0.000000
2
    2.07135000000     0.00000000000     2.58584000000 1 1 1 
    0.00000000000     2.07135000000     2.58584000000 1 1 1 
