ATOMIC_SPECIES
Y 88.905900 Y.upf
Cu 63.546000 Cu.upf
Pb 207.200000 Pb_ONCV_PBE-1.0.upf

LATTICE_CONSTANT
1.889726

LATTICE_VECTORS
    4.63385399800     0.00000000000     0.00000000000
   -2.31692699900     4.01303599800     0.00000000000
    0.00000000000     0.00000000000     7.39628100000

ATOMIC_POSITIONS
Cartesian

Y
0.000000
2
    0.00000000000     0.00000000000     0.00561000000 1 1 1 
    0.00000000000     0.00000000000     3.70375000000 1 1 1 

Cu
0.000000
2
    0.00000000000     2.67536000000     5.00511000000 1 1 1 
    2.31693000000     1.33768000000     1.30697000000 1 1 1 

Pb
0.000000
2
    2.31693000000     1.33768000000     5.70057000000 1 1 1 
    0.00000000000     2.67536000000     2.00243000000 1 1 1 
