ATOMIC_SPECIES
Na 22.989 Na_ONCV_PBE-1.0.upf upf201
Fe 55.845 Fe_ONCV_PBE-1.0.upf upf201
O 15.999 O_ONCV_PBE-1.0.upf upf201

NUMERICAL_ORBITAL
Na_gga_8au_100Ry_4s2p1d.orb
Fe_gga_8au_100Ry_4s2p2d1f.orb
O_gga_7au_100Ry_2s2p1d.orb

LATTICE_CONSTANT
1.88972612463

LATTICE_VECTORS
    6.1482969985     0.0000320435    -0.0001266736 #latvec1
   -3.0742041772     5.3245511720     0.0001340663 #latvec2
    0.0007468856    -0.0004314256    16.3175125320 #latvec3

ATOMIC_POSITIONS
Direct

Na #label
0 #magnetism
12 #number of atoms
    0.0000110052     0.9999900975     0.9999826517 m  1  1  1 mag         0.0000000000
    0.0000106885     0.4999898160     0.9999827849 m  1  1  1 mag         0.0000000000
    0.5000113118     0.9999904166     0.9999827684 m  1  1  1 mag         0.0000000000
    0.5000112016     0.4999898840     0.9999825478 m  1  1  1 mag         0.0000000000
    0.3333250503     0.1666645618     0.3332655613 m  1  1  1 mag         0.0000000000
    0.3333329144     0.6666684515     0.3332634112 m  1  1  1 mag         0.0000000000
    0.8333368605     0.1666645048     0.3332653928 m  1  1  1 mag         0.0000000000
    0.8333367789     0.6666763249     0.3332655525 m  1  1  1 mag         0.0000000000
    0.1666494133     0.3333393765     0.6667536612 m  1  1  1 mag         0.0000000000
    0.1666494586     0.8333499022     0.6667538366 m  1  1  1 mag         0.0000000000
    0.6666530080     0.3333463742     0.6667561871 m  1  1  1 mag         0.0000000000
    0.6666600126     0.8333499838     0.6667536461 m  1  1  1 mag         0.0000000000

Fe #label
5 #magnetism
12 #number of atoms
    0.1667064845     0.3333156639     0.1665085829 m  1  1  1 mag         5.0000000000
    0.1667051184     0.8332970788     0.1665088327 m  1  1  1 mag         5.0000000000
    0.6666988538     0.3333032547     0.1665178322 m  1  1  1 mag         5.0000000000
    0.6666864604     0.8332956893     0.1665085716 m  1  1  1 mag         5.0000000000
    0.9999835153     0.0000153003     0.5000266664 m  1  1  1 mag         5.0000000000
    0.9999827173     0.5000153020     0.5000258879 m  1  1  1 mag         5.0000000000
    0.4999834291     0.0000160569     0.5000258805 m  1  1  1 mag         5.0000000000
    0.4999837080     0.5000149815     0.5000257478 m  1  1  1 mag         5.0000000000
    0.3333303559     0.1666872935     0.8334658015 m  1  1  1 mag         5.0000000000
    0.3333186777     0.6666809455     0.8334573331 m  1  1  1 mag         5.0000000000
    0.8333129511     0.1666866931     0.8334657283 m  1  1  1 mag         5.0000000000
    0.8333123437     0.6666692926     0.8334658104 m  1  1  1 mag         5.0000000000

O #label
0 #magnetism
24 #number of atoms
    0.0000236817     0.9999786674     0.2342459064 m  1  1  1 mag         0.0000000000
    0.0000368933     0.4999914459     0.2342938758 m  1  1  1 mag         0.0000000000
    0.5000105598     0.9999652180     0.2342938988 m  1  1  1 mag         0.0000000000
    0.5000141944     0.4999876394     0.2342945256 m  1  1  1 mag         0.0000000000
    0.3333754353     0.1666425175     0.0987310747 m  1  1  1 mag         0.0000000000
    0.3333707552     0.6666318546     0.0986527243 m  1  1  1 mag         0.0000000000
    0.8333648690     0.1666373242     0.0987314056 m  1  1  1 mag         0.0000000000
    0.8333597337     0.6666269709     0.0987310949 m  1  1  1 mag         0.0000000000
    0.3333044118     0.1666781952     0.5678291549 m  1  1  1 mag         0.0000000000
    0.3333100650     0.6666832757     0.5678077399 m  1  1  1 mag         0.0000000000
    0.8333143752     0.1666795846     0.5678290357 m  1  1  1 mag         0.0000000000
    0.8333155911     0.6666892225     0.5678291492 m  1  1  1 mag         0.0000000000
    0.1666534494     0.3333344066     0.4322216640 m  1  1  1 mag         0.0000000000
    0.1666527814     0.8333469018     0.4322215419 m  1  1  1 mag         0.0000000000
    0.6666564881     0.3333430760     0.4322374183 m  1  1  1 mag         0.0000000000
    0.6666651272     0.8333461730     0.4322217008 m  1  1  1 mag         0.0000000000
    0.1666595369     0.3333507722     0.9012372784 m  1  1  1 mag         0.0000000000
    0.1666577299     0.8333422351     0.9012372202 m  1  1  1 mag         0.0000000000
    0.6666541637     0.3333457890     0.9013142428 m  1  1  1 mag         0.0000000000
    0.6666491873     0.8333404070     0.9012372785 m  1  1  1 mag         0.0000000000
    0.9999888192     0.0000112508     0.7657303170 m  1  1  1 mag         0.0000000000
    0.9999752557     0.5000015883     0.7656871592 m  1  1  1 mag         0.0000000000
    0.4999984309     0.0000247666     0.7656871478 m  1  1  1 mag         0.0000000000
    0.4999967099     0.5000033599     0.7656869206 m  1  1  1 mag         0.0000000000
