ATOMIC_SPECIES
Al 26.981500 Al.PD04.PBE.upf
Mo 95.940000 Mo_ONCV_PBE-1.0.upf

LATTICE_CONSTANT
1.889726

LATTICE_VECTORS
    7.62817500000     0.00000000000     0.00000000000
    0.00000000000     8.99801100000     0.00000000000
   -3.01969700000     0.00000000000     9.32746300200

ATOMIC_POSITIONS
Cartesian

Al
0.000000
16
    2.39326000000     4.17517000000     6.31050000000 1 1 1 
    6.02930000000     8.67417000000     3.01696000000 1 1 1 
    2.21522000000     4.82284000000     3.01696000000 1 1 1 
   -1.42083000000     0.32384000000     6.31050000000 1 1 1 
    7.17327000000     7.90763000000     0.66015000000 1 1 1 
    1.24930000000     3.40863000000     8.66731000000 1 1 1 
   -2.56479000000     1.09038000000     8.66731000000 1 1 1 
    3.35918000000     5.58938000000     0.66015000000 1 1 1 
    1.04326000000     8.11260000000     7.00816000000 1 1 1 
   -0.24887000000     3.61359000000     2.31930000000 1 1 1 
    3.56522000000     0.88541000000     2.31930000000 1 1 1 
    4.85735000000     5.38442000000     7.00816000000 1 1 1 
   -0.04579000000     4.40860000000     4.88443000000 1 1 1 
    0.84018000000     8.90761000000     4.44303000000 1 1 1 
    4.65427000000     4.58941000000     4.44303000000 1 1 1 
    3.76830000000     0.09040000000     4.88443000000 1 1 1 

Mo
0.000000
24
   -1.52990000000     6.87929000000     5.14945000000 1 1 1 
    2.32429000000     2.38029000000     4.17801000000 1 1 1 
    6.13837000000     2.11872000000     4.17801000000 1 1 1 
    2.28419000000     6.61772000000     5.14945000000 1 1 1 
    2.55160000000     5.98797000000     8.32733000000 1 1 1 
    5.87097000000     1.48896000000     1.00014000000 1 1 1 
    2.05688000000     3.01004000000     1.00014000000 1 1 1 
   -1.26249000000     7.50905000000     8.32733000000 1 1 1 
    0.04568000000     5.56547000000     7.27704000000 1 1 1 
    0.74871000000     1.06646000000     2.05042000000 1 1 1 
    4.56280000000     3.43254000000     2.05042000000 1 1 1 
    3.85977000000     7.93155000000     7.27704000000 1 1 1 
    0.64238000000     2.02519000000     6.14775000000 1 1 1 
    0.15201000000     6.52420000000     3.17971000000 1 1 1 
    3.96610000000     6.97282000000     3.17971000000 1 1 1 
    4.45647000000     2.47381000000     6.14775000000 1 1 1 
    2.60249000000     1.24298000000     7.56500000000 1 1 1 
    5.82008000000     5.74198000000     1.76246000000 1 1 1 
    2.00599000000     7.75503000000     1.76246000000 1 1 1 
   -1.21160000000     3.25603000000     7.56500000000 1 1 1 
    0.08660000000     0.94930000000     8.82228000000 1 1 1 
    0.70779000000     5.44830000000     0.50518000000 1 1 1 
    4.52187000000     8.04871000000     0.50518000000 1 1 1 
    3.90069000000     3.54971000000     8.82228000000 1 1 1 
