ATOMIC_SPECIES
Na 22.989 Na_ONCV_PBE-1.0.upf upf201
Ni 58.693 Ni_ONCV_PBE-1.0.upf upf201
O 15.999 O_ONCV_PBE-1.0.upf upf201

NUMERICAL_ORBITAL
Na_gga_8au_100Ry_4s2p1d.orb
Ni_gga_8au_100Ry_4s2p2d1f.orb
O_gga_7au_100Ry_2s2p1d.orb

LATTICE_CONSTANT
1.88972612463

LATTICE_VECTORS
   11.1068238406    -0.0000015790    -0.0445421202 #latvec1
    0.0000009046     5.7832903073     0.0000016995 #latvec2
   -4.2166786433    -0.0000032039    10.5853960696 #latvec3

ATOMIC_POSITIONS
Direct

Na #label
0 #magnetism
16 #number of atoms
    0.2500718967     0.9999999903     0.2501130152 m  1  1  1 mag         0.0000000000
    0.2500799923     0.0000000392     0.7499811557 m  1  1  1 mag         0.0000000000
    0.2500719339     0.5000000558     0.2501129951 m  1  1  1 mag         0.0000000000
    0.2500799609     0.5000000257     0.7499811841 m  1  1  1 mag         0.0000000000
    0.7499195577     0.9999997683     0.2500185281 m  1  1  1 mag         0.0000000000
    0.7499297563     0.9999996893     0.7498883366 m  1  1  1 mag         0.0000000000
    0.7499194945     0.4999998032     0.2500185991 m  1  1  1 mag         0.0000000000
    0.7499297615     0.4999998906     0.7498883018 m  1  1  1 mag         0.0000000000
    0.9999373199     0.2500003352     0.2501092335 m  1  1  1 mag         0.0000000000
    0.0000626015     0.2499996889     0.7498919903 m  1  1  1 mag         0.0000000000
    0.9999373934     0.7500003090     0.2501092327 m  1  1  1 mag         0.0000000000
    0.0000626796     0.7499996545     0.7498919217 m  1  1  1 mag         0.0000000000
    0.5000592638     0.2499996762     0.2500327424 m  1  1  1 mag         0.0000000000
    0.4999418368     0.2500004178     0.7499670354 m  1  1  1 mag         0.0000000000
    0.5000592443     0.7499996580     0.2500326635 m  1  1  1 mag         0.0000000000
    0.4999418033     0.7500004062     0.7499670527 m  1  1  1 mag         0.0000000000

Ni #label
1 #magnetism
16 #number of atoms
    0.2499146275     0.2499993192     0.9999913808 m  1  1  1 mag         1.0000000000
    0.2497105330     0.2500015241     0.4999353187 m  1  1  1 mag         1.0000000000
    0.2499146927     0.7499998802     0.9999913949 m  1  1  1 mag         1.0000000000
    0.2497105886     0.7500005654     0.4999354144 m  1  1  1 mag         1.0000000000
    0.7500942094     0.2499991459     0.0000219990 m  1  1  1 mag         1.0000000000
    0.7502815076     0.2499999897     0.5000529857 m  1  1  1 mag         1.0000000000
    0.7500941380     0.7500002411     0.0000220196 m  1  1  1 mag         1.0000000000
    0.7502814289     0.7499997915     0.5000529572 m  1  1  1 mag         1.0000000000
    0.0000043084     0.0000000786     0.0000062668 m  1  1  1 mag         1.0000000000
    0.9999933858     0.9999995759     0.4999929957 m  1  1  1 mag         1.0000000000
    0.0000044162     0.4999991545     0.0000062630 m  1  1  1 mag         1.0000000000
    0.9999934274     0.5000011103     0.4999930375 m  1  1  1 mag         1.0000000000
    0.5000051172     0.9999995777     0.0000068875 m  1  1  1 mag         1.0000000000
    0.4999950158     0.9999992790     0.4999926154 m  1  1  1 mag         1.0000000000
    0.5000050546     0.4999997154     0.0000068492 m  1  1  1 mag         1.0000000000
    0.4999949999     0.5000014238     0.4999925380 m  1  1  1 mag         1.0000000000

O #label
0 #magnetism
32 #number of atoms
    0.1039924995     0.2499996091     0.0996039556 m  1  1  1 mag         0.0000000000
    0.1045128847     0.2500004558     0.5990548894 m  1  1  1 mag         0.0000000000
    0.1039926203     0.7499996779     0.0996040381 m  1  1  1 mag         0.0000000000
    0.1045127959     0.7500005025     0.5990546614 m  1  1  1 mag         0.0000000000
    0.6041843685     0.2499997081     0.0994109190 m  1  1  1 mag         0.0000000000
    0.6039160744     0.2500002871     0.5995767910 m  1  1  1 mag         0.0000000000
    0.6041843943     0.7499995768     0.0994108885 m  1  1  1 mag         0.0000000000
    0.6039161265     0.7500002620     0.5995768527 m  1  1  1 mag         0.0000000000
    0.3960894596     0.2500003977     0.4004264278 m  1  1  1 mag         0.0000000000
    0.3958112920     0.2499996216     0.9005849562 m  1  1  1 mag         0.0000000000
    0.3960894100     0.7500004702     0.4004264158 m  1  1  1 mag         0.0000000000
    0.3958112497     0.7499996836     0.9005849337 m  1  1  1 mag         0.0000000000
    0.8954884310     0.2500002577     0.4009471820 m  1  1  1 mag         0.0000000000
    0.8960056555     0.2499996712     0.9003950400 m  1  1  1 mag         0.0000000000
    0.8954886237     0.7500002135     0.4009472824 m  1  1  1 mag         0.0000000000
    0.8960055946     0.7499995016     0.9003949225 m  1  1  1 mag         0.0000000000
    0.3539941481     0.9999996362     0.0994169427 m  1  1  1 mag         0.0000000000
    0.3538453449     0.0000009686     0.5991597311 m  1  1  1 mag         0.0000000000
    0.3539942063     0.4999995810     0.0994170163 m  1  1  1 mag         0.0000000000
    0.3538452147     0.5000008111     0.5991596556 m  1  1  1 mag         0.0000000000
    0.8542168081     0.9999996934     0.0995867523 m  1  1  1 mag         0.0000000000
    0.8544555481     0.9999998745     0.5995200540 m  1  1  1 mag         0.0000000000
    0.8542167573     0.4999997428     0.0995867807 m  1  1  1 mag         0.0000000000
    0.8544555142     0.4999998834     0.5995200291 m  1  1  1 mag         0.0000000000
    0.1455467095     0.0000007445     0.4004814489 m  1  1  1 mag         0.0000000000
    0.1457792024     0.9999995476     0.9004116234 m  1  1  1 mag         0.0000000000
    0.1455467578     0.5000008305     0.4004814931 m  1  1  1 mag         0.0000000000
    0.1457790911     0.4999995868     0.9004115461 m  1  1  1 mag         0.0000000000
    0.6461573677     0.0000000960     0.4008408867 m  1  1  1 mag         0.0000000000
    0.6460032296     0.9999997357     0.9005802156 m  1  1  1 mag         0.0000000000
    0.6461573333     0.4999995900     0.4008409448 m  1  1  1 mag         0.0000000000
    0.6460031475     0.4999997010     0.9005801441 m  1  1  1 mag         0.0000000000
