ATOMIC_SPECIES
Na 22.989 Na_ONCV_PBE-1.0.upf upf201
Mn 54.938 Mn_ONCV_PBE-1.0.upf upf201
O 15.999 O_ONCV_PBE-1.0.upf upf201

NUMERICAL_ORBITAL
Na_gga_8au_100Ry_4s2p1d.orb
Mn_gga_9au_100Ry_4s2p2d1f.orb
O_gga_7au_100Ry_2s2p1d.orb

LATTICE_CONSTANT
1.88972612463

LATTICE_VECTORS
   11.6886745985    -0.0000353062    -0.0436779043 #latvec1
    0.0000174579     5.8923831022    -0.0000224669 #latvec2
   -4.7141235152     0.0000558204    10.8347085757 #latvec3

ATOMIC_POSITIONS
Direct

Na #label
0 #magnetism
16 #number of atoms
    0.9999997902     0.2499985983     0.2499999962 m  1  1  1 mag         0.0000000000
    0.9999992128     0.2500010278     0.7499993875 m  1  1  1 mag         0.0000000000
    0.9999998058     0.7499987219     0.2500000003 m  1  1  1 mag         0.0000000000
    0.9999992276     0.7500010045     0.7499993813 m  1  1  1 mag         0.0000000000
    0.4999991986     0.2500009889     0.2499992922 m  1  1  1 mag         0.0000000000
    0.4999998260     0.2499985304     0.7499998720 m  1  1  1 mag         0.0000000000
    0.4999992240     0.7500009462     0.2499992756 m  1  1  1 mag         0.0000000000
    0.4999998337     0.7499986907     0.7499998851 m  1  1  1 mag         0.0000000000
    0.2500005617     0.0000005349     0.2500003477 m  1  1  1 mag         0.0000000000
    0.2500006202     0.0000005714     0.7500004070 m  1  1  1 mag         0.0000000000
    0.2500005604     0.5000005416     0.2500003513 m  1  1  1 mag         0.0000000000
    0.2500006260     0.5000005594     0.7500004013 m  1  1  1 mag         0.0000000000
    0.7500005261     0.9999998633     0.2500005180 m  1  1  1 mag         0.0000000000
    0.7500005918     0.9999997759     0.7500004130 m  1  1  1 mag         0.0000000000
    0.7500006041     0.4999998012     0.2500004897 m  1  1  1 mag         0.0000000000
    0.7500004959     0.4999998299     0.7500004483 m  1  1  1 mag         0.0000000000

Mn #label
4 #magnetism
16 #number of atoms
    0.0000009076     0.9999989782     0.0000009180 m  1  1  1 mag         4.0000000000
    0.0000000118     0.0000013321     0.5000004339 m  1  1  1 mag         4.0000000000
    0.0000008892     0.4999989966     0.0000009527 m  1  1  1 mag         4.0000000000
    0.0000000059     0.5000012945     0.5000004247 m  1  1  1 mag         4.0000000000
    0.5000008721     0.9999989196     0.0000009176 m  1  1  1 mag         4.0000000000
    0.5000000107     0.0000011536     0.5000001376 m  1  1  1 mag         4.0000000000
    0.5000009254     0.4999988869     0.0000008595 m  1  1  1 mag         4.0000000000
    0.4999999934     0.5000011837     0.5000001592 m  1  1  1 mag         4.0000000000
    0.2499997217     0.2500006491     0.9999993876 m  1  1  1 mag         4.0000000000
    0.2499994407     0.2500009875     0.4999991147 m  1  1  1 mag         4.0000000000
    0.2499997208     0.7500004747     0.9999994228 m  1  1  1 mag         4.0000000000
    0.2499994470     0.7500010870     0.4999991596 m  1  1  1 mag         4.0000000000
    0.7500003638     0.2499960747     0.0000001069 m  1  1  1 mag         4.0000000000
    0.7499989574     0.2500017108     0.4999986829 m  1  1  1 mag         4.0000000000
    0.7500003236     0.7499964803     0.0000001205 m  1  1  1 mag         4.0000000000
    0.7499989528     0.7500016478     0.4999986796 m  1  1  1 mag         4.0000000000

O #label
0 #magnetism
32 #number of atoms
    0.1482540289     0.0000011075     0.3959150525 m  1  1  1 mag         0.0000000000
    0.1482535829     0.0000007706     0.8959143167 m  1  1  1 mag         0.0000000000
    0.1482540363     0.5000009247     0.3959150273 m  1  1  1 mag         0.0000000000
    0.1482536377     0.5000005767     0.8959143335 m  1  1  1 mag         0.0000000000
    0.6482536138     0.0000017780     0.3959146007 m  1  1  1 mag         0.0000000000
    0.6482541718     0.9999961732     0.8959149849 m  1  1  1 mag         0.0000000000
    0.6482536499     0.5000017475     0.3959145912 m  1  1  1 mag         0.0000000000
    0.6482543559     0.4999959976     0.8959152369 m  1  1  1 mag         0.0000000000
    0.3517450967     0.0000004796     0.1040838501 m  1  1  1 mag         0.0000000000
    0.3517454890     0.0000008206     0.6040845387 m  1  1  1 mag         0.0000000000
    0.3517450253     0.5000006715     0.1040838464 m  1  1  1 mag         0.0000000000
    0.3517455113     0.5000010008     0.6040845458 m  1  1  1 mag         0.0000000000
    0.8517457868     0.9999959363     0.1040848357 m  1  1  1 mag         0.0000000000
    0.8517450971     0.0000016842     0.6040841967 m  1  1  1 mag         0.0000000000
    0.8517455821     0.4999960994     0.1040846005 m  1  1  1 mag         0.0000000000
    0.8517450722     0.5000017230     0.6040842066 m  1  1  1 mag         0.0000000000
    0.3982542163     0.2500012759     0.3959161605 m  1  1  1 mag         0.0000000000
    0.3982544466     0.2499992434     0.8959159330 m  1  1  1 mag         0.0000000000
    0.3982542428     0.7500012832     0.3959161541 m  1  1  1 mag         0.0000000000
    0.3982544599     0.7499992876     0.8959159559 m  1  1  1 mag         0.0000000000
    0.8982542479     0.2500013169     0.3959163906 m  1  1  1 mag         0.0000000000
    0.8982542650     0.2499988480     0.8959161530 m  1  1  1 mag         0.0000000000
    0.8982542570     0.7500013041     0.3959163940 m  1  1  1 mag         0.0000000000
    0.8982542532     0.7499988306     0.8959161614 m  1  1  1 mag         0.0000000000
    0.1017463566     0.2499991975     0.1040846087 m  1  1  1 mag         0.0000000000
    0.1017461870     0.2500013286     0.6040850302 m  1  1  1 mag         0.0000000000
    0.1017463578     0.7499993127     0.1040846227 m  1  1  1 mag         0.0000000000
    0.1017462118     0.7500013348     0.6040850201 m  1  1  1 mag         0.0000000000
    0.6017462585     0.2499986572     0.1040848356 m  1  1  1 mag         0.0000000000
    0.6017462358     0.2500010923     0.6040848416 m  1  1  1 mag         0.0000000000
    0.6017462529     0.7499987132     0.1040848254 m  1  1  1 mag         0.0000000000
    0.6017462284     0.7500010913     0.6040848484 m  1  1  1 mag         0.0000000000
