ATOMIC_SPECIES
Ca 40.078000 Ca.upf
Pd 106.420000 Pd_ONCV_PBE-1.0.upf

LATTICE_CONSTANT
1.889726

LATTICE_VECTORS
    5.48323549000     0.00000000000     0.00000000000
    2.74161774500     4.74862122900     0.00000000000
    2.74161774500     1.58287374300     4.47704303000

ATOMIC_POSITIONS
Cartesian

Ca
0.000000
2
    2.74162000000     1.58287000000     1.11926000000 1 1 1 
    5.48324000000     3.16575000000     2.23852000000 1 1 1 

Pd
0.000000
4
    9.59566000000     5.54006000000     3.91741000000 1 1 1 
    8.22485000000     3.16575000000     3.91741000000 1 1 1 
    8.22485000000     4.74862000000     1.67889000000 1 1 1 
    6.85404000000     5.54006000000     3.91741000000 1 1 1 
