ATOMIC_SPECIES
Ca 40.078000 Ca.upf
Si 28.085500 Si.upf
Pt 195.078000 Pt_ONCV_PBE-1.0.upf

LATTICE_CONSTANT
1.889726

LATTICE_VECTORS
    8.83390999500     0.00000000000     0.00000000000
   -4.41695499700     7.65039099600     0.00000000000
    0.00000000000     0.00000000000    13.85546700000

ATOMIC_POSITIONS
Cartesian

Ca
0.000000
20
    5.56088000000     5.66905000000     1.47486000000 1 1 1 
    6.54605000000     0.00000000000     1.47486000000 1 1 1 
    1.14393000000     1.98134000000     1.47486000000 1 1 1 
    7.68998000000     1.98134000000    12.38061000000 1 1 1 
    2.28786000000     0.00000000000    12.38061000000 1 1 1 
    3.27303000000     5.66905000000    12.38061000000 1 1 1 
    7.68998000000     1.98134000000     8.40259000000 1 1 1 
    2.28786000000     0.00000000000     8.40259000000 1 1 1 
    3.27303000000     5.66905000000     8.40259000000 1 1 1 
    5.56088000000     5.66905000000     5.45287000000 1 1 1 
    6.54605000000     0.00000000000     5.45287000000 1 1 1 
    1.14393000000     1.98134000000     5.45287000000 1 1 1 
    0.00000000000     5.10026000000     0.00000000000 1 1 1 
    4.41695000000     2.55013000000     0.00000000000 1 1 1 
    4.41695000000     2.55013000000     6.92773000000 1 1 1 
    0.00000000000     5.10026000000     6.92773000000 1 1 1 
    4.41695000000     2.55013000000     3.46387000000 1 1 1 
    0.00000000000     5.10026000000     3.46387000000 1 1 1 
    0.00000000000     5.10026000000    10.39160000000 1 1 1 
    4.41695000000     2.55013000000    10.39160000000 1 1 1 

Si
0.000000
6
    7.59193000000     2.15117000000     3.46387000000 1 1 1 
    2.48395000000     0.00000000000     3.46387000000 1 1 1 
    3.17498000000     5.49922000000     3.46387000000 1 1 1 
    5.65893000000     5.49922000000    10.39160000000 1 1 1 
    6.34996000000     0.00000000000    10.39160000000 1 1 1 
    1.24198000000     2.15117000000    10.39160000000 1 1 1 

Pt
0.000000
14
    0.00000000000     0.00000000000     3.46387000000 1 1 1 
    0.00000000000     0.00000000000    10.39160000000 1 1 1 
   -1.80706000000     3.12991000000     1.37727000000 1 1 1 
    3.61411000000     0.00000000000     1.37727000000 1 1 1 
    2.60990000000     4.52048000000     1.37727000000 1 1 1 
    6.22401000000     4.52048000000    12.47819000000 1 1 1 
    5.21980000000     0.00000000000    12.47819000000 1 1 1 
    1.80706000000     3.12991000000    12.47819000000 1 1 1 
    6.22401000000     4.52048000000     8.30501000000 1 1 1 
    5.21980000000     0.00000000000     8.30501000000 1 1 1 
    1.80706000000     3.12991000000     8.30501000000 1 1 1 
   -1.80706000000     3.12991000000     5.55046000000 1 1 1 
    3.61411000000     0.00000000000     5.55046000000 1 1 1 
    2.60990000000     4.52048000000     5.55046000000 1 1 1 
