ATOMIC_SPECIES
Er 167.259000 Er.upf
Co 58.933200 Co_ONCV_PBE-1.0.upf
Si 28.085500 Si.upf

LATTICE_CONSTANT
1.889726

LATTICE_VECTORS
    3.96470000000     0.00000000000     0.00000000000
    0.00000000000     3.99761199900     0.00000000000
    0.00000000000    -1.99880600000     8.11920799800

ATOMIC_POSITIONS
Cartesian

Er
0.000000
2
    2.97353000000     1.99881000000     6.37346000000 1 1 1 
    0.99117000000     0.00000000000     1.74574000000 1 1 1 

Co
0.000000
2
    0.99117000000     0.00000000000     5.22158000000 1 1 1 
    2.97353000000     1.99881000000     2.89763000000 1 1 1 

Si
0.000000
4
    2.97352000000     0.00000000000     4.05808000000 1 1 1 
    0.99118000000     1.99881000000     4.06113000000 1 1 1 
    0.99117000000     0.00000000000     7.43525000000 1 1 1 
    2.97353000000     1.99881000000     0.68396000000 1 1 1 
