ATOMIC_SPECIES
Ho 164.930300 Ho.upf
Bi 208.980400 Bi.upf
I 126.904500 I.PD03.PBE.UPF
O 15.999400 O.upf

LATTICE_CONSTANT
1.000000

LATTICE_VECTORS
    7.44040394205     0.00000000000     0.00000000000
    0.00000000000     7.44040394205     0.00000000000
    0.00000000000     0.00000000000    18.30548985416

ATOMIC_POSITIONS
Cartesian

Ho
0.000000
1
    0.00000000000     0.00000000000     0.00000000000 

Bi
0.000000
2
    3.72020197102     3.72020197102     4.69466253898 
    3.72020197102     3.72020197102    13.61082731518 

I
0.000000
1
    0.00000000000     0.00000000000     9.15274492708 

O
0.000000
4
    0.00000000000     3.72020197102     2.59066614612 
    3.72020197102     0.00000000000    15.71482370804 
    0.00000000000     3.72020197102    15.71482370804 
    3.72020197102     0.00000000000     2.59066614612 
