ATOMIC_SPECIES
Li 6.941 Li_ONCV_PBE-1.0.upf upf201
Cr 51.996 Cr_ONCV_PBE-1.0.upf upf201
O 15.999 O_ONCV_PBE-1.0.upf upf201

NUMERICAL_ORBITAL
Li_gga_7au_100Ry_4s1p.orb
Cr_gga_8au_100Ry_4s2p2d1f.orb
O_gga_7au_100Ry_2s2p1d.orb

LATTICE_CONSTANT
1.88972612463

LATTICE_VECTORS
    5.9430795841    -0.0325336057    -0.0240263989 #latvec1
   -3.0153298339     5.1509668718    -0.0006945070 #latvec2
   -0.2393463794     0.1446485372    14.5543597425 #latvec3

ATOMIC_POSITIONS
Direct

Li #label
0 #magnetism
6 #number of atoms
    0.9998164482     0.4991913822     0.9991892898 m  1  1  1 mag         0.0000000000
    0.4987212554     0.9993270397     0.9991833010 m  1  1  1 mag         0.0000000000
    0.3335383126     0.1668833114     0.3331512425 m  1  1  1 mag         0.0000000000
    0.8328825002     0.6670662802     0.3331634219 m  1  1  1 mag         0.0000000000
    0.1677860530     0.3330924992     0.6673156367 m  1  1  1 mag         0.0000000000
    0.6674797848     0.8325068771     0.6673482161 m  1  1  1 mag         0.0000000000

Cr #label
3 #magnetism
12 #number of atoms
    0.1666327333     0.3332817676     0.1655303054 m  1  1  1 mag         3.0000000000
    0.1665392946     0.8333250717     0.1655238804 m  1  1  1 mag         3.0000000000
    0.6666129588     0.3333664300     0.1654823742 m  1  1  1 mag         3.0000000000
    0.6666321741     0.8332972428     0.1654785006 m  1  1  1 mag         3.0000000000
    0.4999014989     0.5005333641     0.5007876097 m  1  1  1 mag         3.0000000000
    0.4998802555     0.0006082345     0.5009770088 m  1  1  1 mag         3.0000000000
    0.9998794225     0.5006299826     0.5009539838 m  1  1  1 mag         3.0000000000
    0.9999025368     0.0005623751     0.5007400752 m  1  1  1 mag         3.0000000000
    0.3334680525     0.1663145505     0.8336728975 m  1  1  1 mag         3.0000000000
    0.3334503852     0.6662295558     0.8335824440 m  1  1  1 mag         3.0000000000
    0.8334241813     0.1661786572     0.8336257435 m  1  1  1 mag         3.0000000000
    0.8334752211     0.6662893820     0.8337073491 m  1  1  1 mag         3.0000000000

O #label
0 #magnetism
24 #number of atoms
    0.0082341651     0.9915564217     0.2370751036 m  1  1  1 mag         0.0000000000
    0.9946878915     0.5023893778     0.2333907904 m  1  1  1 mag         0.0000000000
    0.4944280216     0.0019883809     0.2333329684 m  1  1  1 mag         0.0000000000
    0.5084561501     0.4916198388     0.2370607240 m  1  1  1 mag         0.0000000000
    0.3384905201     0.1643099257     0.0975623667 m  1  1  1 mag         0.0000000000
    0.3249132642     0.6749548998     0.0940221788 m  1  1  1 mag         0.0000000000
    0.8248368034     0.1749483957     0.0940420622 m  1  1  1 mag         0.0000000000
    0.8387823310     0.6647387484     0.0975964653 m  1  1  1 mag         0.0000000000
    0.3299445334     0.1704035545     0.5687123714 m  1  1  1 mag         0.0000000000
    0.3406932334     0.6592814670     0.5724191863 m  1  1  1 mag         0.0000000000
    0.8407682033     0.1592852807     0.5723679918 m  1  1  1 mag         0.0000000000
    0.8298202220     0.6702985579     0.5687078210 m  1  1  1 mag         0.0000000000
    0.1699246703     0.3309180953     0.4330411469 m  1  1  1 mag         0.0000000000
    0.1591612594     0.8418442920     0.4292843964 m  1  1  1 mag         0.0000000000
    0.6591986159     0.3418262010     0.4292890872 m  1  1  1 mag         0.0000000000
    0.6697623243     0.8307218679     0.4330090163 m  1  1  1 mag         0.0000000000
    0.1630107620     0.3362100195     0.9016296707 m  1  1  1 mag         0.0000000000
    0.1745934294     0.8249837253     0.9050870834 m  1  1  1 mag         0.0000000000
    0.6745456146     0.3248914401     0.9050891595 m  1  1  1 mag         0.0000000000
    0.6629228669     0.8361622637     0.9016288347 m  1  1  1 mag         0.0000000000
    0.9924455165     0.0075885011     0.7623267647 m  1  1  1 mag         0.0000000000
    0.0039829247     0.4963965573     0.7658022244 m  1  1  1 mag         0.0000000000
    0.5038963837     0.9964338654     0.7658084589 m  1  1  1 mag         0.0000000000
    0.4924779158     0.5075646380     0.7622884749 m  1  1  1 mag         0.0000000000
