ATOMIC_SPECIES
Gd 157.250000 Gd3+_f--core-icmod1.PD04.PBE.UPF
Si 28.085500 Si.upf

LATTICE_CONSTANT
1.889726

LATTICE_VECTORS
    7.51738720000     0.00000000000     0.00000000000
    0.00872569200     7.76970543000     0.00000000000
    0.00193430800     0.00475345400    14.80470133100

ATOMIC_POSITIONS
Cartesian

Gd
0.000000
20
    3.98181000000     5.30621000000     5.96067000000 1 1 1 
    0.22015000000     6.34181000000     1.46038000000 1 1 1 
    3.55160000000     2.46934000000    13.35409000000 1 1 1 
    7.30550000000     1.42764000000     8.83266000000 1 1 1 
    3.54647000000     2.46142000000     8.82966000000 1 1 1 
    7.29384000000     1.41815000000    13.34819000000 1 1 1 
    3.99165000000     5.31070000000     1.47479000000 1 1 1 
    0.22711000000     6.34607000000     5.96277000000 1 1 1 
    1.38236000000     2.49478000000     5.59952000000 1 1 1 
    5.14462000000     1.39496000000     1.83412000000 1 1 1 
    6.14861000000     5.28838000000    12.98118000000 1 1 1 
    2.38337000000     6.38016000000     9.19686000000 1 1 1 
    6.14539000000     5.28292000000     9.20214000000 1 1 1 
    2.38246000000     6.37775000000    12.98421000000 1 1 1 
    1.38119000000     2.49830000000     1.83910000000 1 1 1 
    5.14676000000     1.40187000000     5.59433000000 1 1 1 
    4.85196000000     0.08601000000    11.08099000000 1 1 1 
    1.07562000000     3.80553000000    11.07097000000 1 1 1 
    2.68292000000     7.67243000000     3.71702000000 1 1 1 
    6.43883000000     3.98293000000     3.71798000000 1 1 1 

Si
0.000000
16
    2.68033000000     0.22034000000     6.80619000000 1 1 1 
    6.43727000000     3.67665000000     0.60143000000 1 1 1 
    4.85012000000     7.54707000000    14.21676000000 1 1 1 
    1.08037000000     4.10428000000     7.98681000000 1 1 1 
    4.85297000000     7.55198000000     7.98813000000 1 1 1 
    1.07925000000     4.11441000000    14.21802000000 1 1 1 
    2.68228000000     0.21053000000     0.60165000000 1 1 1 
    6.44195000000     3.67083000000     6.80834000000 1 1 1 
    3.93142000000     4.67362000000    11.09651000000 1 1 1 
    0.16540000000     6.99111000000    11.09380000000 1 1 1 
    3.60993000000     3.11350000000     3.71265000000 1 1 1 
    7.35877000000     0.78043000000     3.71428000000 1 1 1 
    5.71576000000     2.91710000000    11.09050000000 1 1 1 
    1.94708000000     0.97271000000    11.08718000000 1 1 1 
    1.81112000000     4.85475000000     3.71314000000 1 1 1 
    5.57858000000     6.79359000000     3.70762000000 1 1 1 
