ATOMIC_SPECIES
Ce 140.116000 Ce-sp.PD04.PBE.UPF
In 114.818000 In.PD04.PBE.UPF
Pd 106.420000 Pd_ONCV_PBE-1.0.upf

LATTICE_CONSTANT
1.889726

LATTICE_VECTORS
    4.69055199800     0.00000000000     0.00000000000
   -2.34527599900     4.06213799900     0.00000000000
    0.00000000000     0.00000000000     9.06721500000

ATOMIC_POSITIONS
Cartesian

Ce
0.000000
2
    0.00000000000     2.70809000000     2.26680000000 1 1 1 
    2.34528000000     1.35405000000     6.80041000000 1 1 1 

In
0.000000
2
    0.00000000000     0.00000000000     0.00000000000 1 1 1 
    0.00000000000     0.00000000000     4.53361000000 1 1 1 

Pd
0.000000
4
    2.34528000000     1.35405000000     0.76457000000 1 1 1 
    0.00000000000     2.70809000000     5.29817000000 1 1 1 
    2.34528000000     1.35405000000     3.76904000000 1 1 1 
    0.00000000000     2.70809000000     8.30265000000 1 1 1 
