ATOMIC_SPECIES
Sr 87.620000 Sr_ONCV_PBE-1.0.upf
Ga 69.723000 Ga-low.PD04.PBE.UPF
Rh 102.905500 Rh_ONCV_PBE-1.0.upf

LATTICE_CONSTANT
1.889726

LATTICE_VECTORS
    5.82713000100     0.00000000000     0.00000000000
    2.91356500100     5.30793900000     0.00000000000
    2.91356499800    -0.00000000100     6.79410900100

ATOMIC_POSITIONS
Cartesian

Sr
0.000000
2
    2.91357000000     0.00000000000     0.00000000000 1 1 1 
    4.37035000000     2.65397000000     3.39705000000 1 1 1 

Ga
0.000000
4
    5.82713000000     1.92385000000     0.00000000000 1 1 1 
    2.91357000000     3.38409000000     0.00000000000 1 1 1 
    7.28391000000     0.73012000000     3.39705000000 1 1 1 
    7.28391000000     4.57782000000     3.39705000000 1 1 1 

Rh
0.000000
4
    2.91356000000     0.00000000000     5.21656000000 1 1 1 
    5.82713000000     0.00000000000     1.57755000000 1 1 1 
    7.28391000000     2.65397000000     4.97461000000 1 1 1 
    7.28391000000     2.65397000000     1.81950000000 1 1 1 
