ATOMIC_SPECIES
Na 22.989 Na_ONCV_PBE-1.0.upf upf201
Co 58.933 Co_ONCV_PBE-1.0.upf upf201
O 15.999 O_ONCV_PBE-1.0.upf upf201

NUMERICAL_ORBITAL
Na_gga_8au_100Ry_4s2p1d.orb
Co_gga_8au_100Ry_4s2p2d1f.orb
O_gga_7au_100Ry_2s2p1d.orb

LATTICE_CONSTANT
1.88972612463

LATTICE_VECTORS
    5.6974380899     0.0084597883    -0.0241949309 #latvec1
   -2.7501972196     4.9897130509     0.0243754246 #latvec2
   -0.4896568922     0.2877766681    16.6664838977 #latvec3

ATOMIC_POSITIONS
Direct

Na #label
0 #magnetism
6 #number of atoms
    0.0000131535     0.5000155055     0.9999990435 m  1  1  1 mag         0.0000000000
    0.5000118686     0.0000167819     0.9999990793 m  1  1  1 mag         0.0000000000
    0.3331720181     0.1668170125     0.3334136798 m  1  1  1 mag         0.0000000000
    0.8331773907     0.6668115536     0.3334134794 m  1  1  1 mag         0.0000000000
    0.1668190984     0.3331586674     0.6665864154 m  1  1  1 mag         0.0000000000
    0.6668152778     0.8331624795     0.6665865563 m  1  1  1 mag         0.0000000000

Co #label
1 #magnetism
12 #number of atoms
    0.1664401297     0.3336027035     0.1667654940 m  1  1  1 mag         1.0000000000
    0.1664076855     0.8336364679     0.1667214853 m  1  1  1 mag         1.0000000000
    0.6664073071     0.3336366707     0.1667215573 m  1  1  1 mag         1.0000000000
    0.6664396642     0.8336023669     0.1667655773 m  1  1  1 mag         1.0000000000
    0.4999815379     0.4999610464     0.5000015210 m  1  1  1 mag         1.0000000000
    0.4999827595     0.9999630720     0.5000005516 m  1  1  1 mag         1.0000000000
    0.9999824610     0.4999633598     0.5000008239 m  1  1  1 mag         1.0000000000
    0.9999808811     0.9999603823     0.5000015190 m  1  1  1 mag         1.0000000000
    0.3335775856     0.1664359172     0.8332333027 m  1  1  1 mag         1.0000000000
    0.3336098480     0.6664042831     0.8332756560 m  1  1  1 mag         1.0000000000
    0.8336100760     0.1664041734     0.8332756215 m  1  1  1 mag         1.0000000000
    0.8335778013     0.6664360319     0.8332332474 m  1  1  1 mag         1.0000000000

O #label
0 #magnetism
24 #number of atoms
    0.0050385837     0.9950046027     0.2264336333 m  1  1  1 mag         0.0000000000
    0.0008722426     0.4991807787     0.2255730863 m  1  1  1 mag         0.0000000000
    0.5008720449     0.9991810424     0.2255731267 m  1  1  1 mag         0.0000000000
    0.5050388440     0.4950047099     0.2264335881 m  1  1  1 mag         0.0000000000
    0.3319305351     0.1681074809     0.1078516956 m  1  1  1 mag         0.0000000000
    0.3278612621     0.6721755694     0.1071210667 m  1  1  1 mag         0.0000000000
    0.8278611850     0.1721753705     0.1071210318 m  1  1  1 mag         0.0000000000
    0.8319306125     0.6681074617     0.1078517137 m  1  1  1 mag         0.0000000000
    0.3344968589     0.1654502076     0.5587254063 m  1  1  1 mag         0.0000000000
    0.3385665833     0.6613876441     0.5596357216 m  1  1  1 mag         0.0000000000
    0.8385666109     0.1613876744     0.5596357213 m  1  1  1 mag         0.0000000000
    0.8344967052     0.6654503548     0.5587253746 m  1  1  1 mag         0.0000000000
    0.1654630277     0.3344674990     0.4412775617 m  1  1  1 mag         0.0000000000
    0.1614015472     0.8385433835     0.4403659456 m  1  1  1 mag         0.0000000000
    0.6614014435     0.3385432703     0.4403659468 m  1  1  1 mag         0.0000000000
    0.6654632460     0.8344672733     0.4412775927 m  1  1  1 mag         0.0000000000
    0.1680880298     0.3319345870     0.8921462205 m  1  1  1 mag         0.0000000000
    0.1721572751     0.8278630585     0.8928772759 m  1  1  1 mag         0.0000000000
    0.6721573526     0.3278632030     0.8928772880 m  1  1  1 mag         0.0000000000
    0.6680879979     0.8319346576     0.8921462112 m  1  1  1 mag         0.0000000000
    0.9949760383     0.0050291834     0.7735651451 m  1  1  1 mag         0.0000000000
    0.9991450189     0.5008616974     0.7744237586 m  1  1  1 mag         0.0000000000
    0.4991448697     0.0008618686     0.7744237830 m  1  1  1 mag         0.0000000000
    0.4949762327     0.5050292651     0.7735651222 m  1  1  1 mag         0.0000000000
