ATOMIC_SPECIES
Be 9.012200 Be_ONCV_PBE-1.0.upf
Nb 92.906400 Nb.upf

LATTICE_CONSTANT
1.889726

LATTICE_VECTORS
    5.56194965000     0.00000000000     0.00000000000
    0.66485996800     5.52206891800     0.00000000000
    0.66485913200     0.58961140200     5.49050099600

ATOMIC_POSITIONS
Cartesian

Be
0.000000
17
    4.12754000000     3.66040000000     3.28836000000 1 1 1 
    2.76412000000     2.45128000000     2.20214000000 1 1 1 
    3.11340000000     2.76103000000     0.00000000000 1 1 1 
    6.22681000000     3.05584000000     2.74525000000 1 1 1 
    3.11340000000     0.29481000000     2.74525000000 1 1 1 
    2.00770000000     3.22899000000     4.35765000000 1 1 1 
    4.88397000000     1.43417000000     2.74525000000 1 1 1 
    3.44583000000     4.50436000000     1.13285000000 1 1 1 
    4.88397000000     2.88269000000     1.13285000000 1 1 1 
    2.00770000000     4.67751000000     2.74525000000 1 1 1 
    3.44583000000     1.60732000000     4.35765000000 1 1 1 
    5.49817000000     2.37404000000     4.64899000000 1 1 1 
    5.49817000000     4.87590000000     1.86407000000 1 1 1 
    3.01425000000     5.17496000000     4.64899000000 1 1 1 
    3.87742000000     0.93672000000     0.84151000000 1 1 1 
    1.39350000000     3.73764000000     0.84151000000 1 1 1 
    1.39350000000     1.23578000000     3.62643000000 1 1 1 

Nb
0.000000
2
    5.79670000000     5.14064000000     4.61815000000 1 1 1 
    1.09497000000     0.97104000000     0.87235000000 1 1 1 
