ATOMIC_SPECIES
Cd 112.411 Cd_ONCV_PBE-1.0.upf
Te 127.600 Te_ONCV_PBE-1.0.upf

NUMERICAL_ORBITAL
Cd_gga_7au_100Ry_4s2p2d1f.orb
Te_gga_7au_100Ry_2s2p2d1f.orb

LATTICE_CONSTANT
1.889716

LATTICE_VECTORS
    0.00000     3.28211     3.28211
    3.28211     0.00000     3.28211
    3.28211     3.28211     0.00000

ATOMIC_POSITIONS
Direct

Cd
0.0
1
  0.0000000   0.0000000   0.0000000 1 1 1

Te
0.0
1
  0.2500000   0.2500000   0.2500000 1 1 1

