ATOMIC_SPECIES
Mn 54.938000 Mn.upf
Zn 65.390000 Zn_ONCV_PBE-1.0.upf
Ga 69.723000 Ga-low.PD04.PBE.UPF

LATTICE_CONSTANT
1.889726

LATTICE_VECTORS
    9.22444350000     0.00000000000     0.00000000000
   -0.76641458200     9.19254951400     0.00000000000
   -0.76641311700    -0.83297073100     9.15473300200

ATOMIC_POSITIONS
Cartesian

Mn
0.000000
8
    7.65611000000     2.06840000000     5.61933000000 1 1 1 
    6.26467000000     6.80871000000     7.45635000000 1 1 1 
    6.26647000000     3.47029000000     0.87614000000 1 1 1 
    0.03550000000     6.29117000000     3.53540000000 1 1 1 
    2.93764000000     0.28055000000     6.58565000000 1 1 1 
    1.42514000000     4.88929000000     8.27859000000 1 1 1 
    4.75398000000     8.07903000000     2.56908000000 1 1 1 
    1.42695000000     1.55087000000     1.69839000000 1 1 1 

Zn
0.000000
14
    6.17896000000     4.38332000000     6.03951000000 1 1 1 
    1.49945000000     5.23691000000     5.61080000000 1 1 1 
    3.84581000000     4.17979000000     4.57737000000 1 1 1 
    2.60695000000     1.73526000000     4.24218000000 1 1 1 
    2.72070000000     6.44049000000     3.43095000000 1 1 1 
    5.08467000000     6.62432000000     4.91255000000 1 1 1 
    1.51266000000     3.97626000000     3.11523000000 1 1 1 
    4.97092000000     1.91909000000     5.72379000000 1 1 1 
    6.19217000000     3.12266000000     3.54393000000 1 1 1 
    3.85478000000     5.42370000000     7.04221000000 1 1 1 
    3.83683000000     2.93588000000     2.11252000000 1 1 1 
    2.59739000000     2.94669000000     6.72488000000 1 1 1 
    5.09423000000     5.41289000000     2.42985000000 1 1 1 
    0.00000000000     0.00000000000     0.00000000000 1 1 1 

Ga
0.000000
27
    7.83293000000     4.89909000000     2.06988000000 1 1 1 
    7.76409000000     6.65462000000     5.50044000000 1 1 1 
   -0.74917000000     5.99274000000     8.05463000000 1 1 1 
    1.00603000000     6.05918000000     1.30251000000 1 1 1 
    0.66193000000     1.06471000000     6.15228000000 1 1 1 
    1.65736000000     0.31555000000     8.67253000000 1 1 1 
    5.95465000000     1.16069000000     1.61781000000 1 1 1 
    5.98653000000     4.72661000000     8.75446000000 1 1 1 
    7.02968000000     7.29487000000     3.00245000000 1 1 1 
    0.17676000000     8.48481000000     2.45679000000 1 1 1 
    6.03426000000     8.04402000000     0.48221000000 1 1 1 
    3.46026000000     7.04242000000     0.78807000000 1 1 1 
   -0.07248000000     1.70496000000     3.65429000000 1 1 1 
    3.47874000000     0.21730000000     2.02907000000 1 1 1 
    6.73057000000     0.41934000000     4.08824000000 1 1 1 
   -0.14132000000     3.46049000000     7.08486000000 1 1 1 
   -0.76641000000     4.17979000000     4.57737000000 1 1 1 
    7.51486000000    -0.12523000000     6.69794000000 1 1 1 
    8.44079000000     2.36684000000     1.10011000000 1 1 1 
    4.23135000000     1.31716000000     8.36667000000 1 1 1 
    1.70508000000     3.63297000000     0.40027000000 1 1 1 
    6.68559000000     2.30039000000     7.85223000000 1 1 1 
    4.21287000000     8.14227000000     7.12566000000 1 1 1 
    1.73697000000     7.19889000000     7.53693000000 1 1 1 
    0.96104000000     7.94024000000     5.06649000000 1 1 1 
    4.22901000000     4.59627000000     0.00000000000 1 1 1 
    4.22902000000    -0.41649000000     4.57737000000 1 1 1 
