ATOMIC_SPECIES
Na 22.989 Na_ONCV_PBE-1.0.upf upf201
Ni 58.693 Ni_ONCV_PBE-1.0.upf upf201
O 15.999 O_ONCV_PBE-1.0.upf upf201

NUMERICAL_ORBITAL
Na_gga_8au_100Ry_4s2p1d.orb
Ni_gga_8au_100Ry_4s2p2d1f.orb
O_gga_7au_100Ry_2s2p1d.orb

LATTICE_CONSTANT
1.88972612463

LATTICE_VECTORS
    5.7820155921     0.0002803301    -0.0007831985 #latvec1
   -2.8914367676     5.5521468857    -0.0196929581 #latvec2
   -0.0038188203    -0.7628545505    15.8596488703 #latvec3

ATOMIC_POSITIONS
Direct

Na #label
0 #magnetism
12 #number of atoms
    0.9999555253     0.9998521194     0.0000145244 m  1  1  1 mag         0.0000000000
    0.9999528740     0.4998436152     0.0000169013 m  1  1  1 mag         0.0000000000
    0.4999555214     0.9998521204     0.0000145241 m  1  1  1 mag         0.0000000000
    0.4999528781     0.4998436198     0.0000169015 m  1  1  1 mag         0.0000000000
    0.3332640015     0.1666937584     0.3333599639 m  1  1  1 mag         0.0000000000
    0.3332711047     0.6666960916     0.3333556681 m  1  1  1 mag         0.0000000000
    0.8332639912     0.1666937392     0.3333599659 m  1  1  1 mag         0.0000000000
    0.8332711115     0.6666960959     0.3333556673 m  1  1  1 mag         0.0000000000
    0.1667750672     0.3334508564     0.6666300870 m  1  1  1 mag         0.0000000000
    0.1667845818     0.8334618585     0.6666226682 m  1  1  1 mag         0.0000000000
    0.6667750781     0.3334508717     0.6666300857 m  1  1  1 mag         0.0000000000
    0.6667845693     0.8334618451     0.6666226698 m  1  1  1 mag         0.0000000000

Ni #label
1 #magnetism
12 #number of atoms
    0.1665554413     0.3331922015     0.1667272100 m  1  1  1 mag         1.0000000000
    0.1665778775     0.8332434881     0.1667005105 m  1  1  1 mag         1.0000000000
    0.6665554089     0.3331922090     0.1667272067 m  1  1  1 mag         1.0000000000
    0.6665779333     0.8332434813     0.1667005143 m  1  1  1 mag         1.0000000000
    0.0000394349     0.0001871484     0.4999725702 m  1  1  1 mag         1.0000000000
    0.0000176560     0.5001718135     0.4999920775 m  1  1  1 mag         1.0000000000
    0.5000394137     0.0001871471     0.4999725703 m  1  1  1 mag         1.0000000000
    0.5000176233     0.5001718137     0.4999920791 m  1  1  1 mag         1.0000000000
    0.3334048322     0.1665867637     0.8333102592 m  1  1  1 mag         1.0000000000
    0.3334057734     0.6666243342     0.8333024226 m  1  1  1 mag         1.0000000000
    0.8334048210     0.1665867656     0.8333102578 m  1  1  1 mag         1.0000000000
    0.8334058332     0.6666243346     0.8333024217 m  1  1  1 mag         1.0000000000

O #label
0 #magnetism
24 #number of atoms
    0.9878034325     0.9755590083     0.2328556256 m  1  1  1 mag         0.0000000000
    0.9875335224     0.4749427146     0.2330610985 m  1  1  1 mag         0.0000000000
    0.4878034348     0.9755590155     0.2328556300 m  1  1  1 mag         0.0000000000
    0.4875335229     0.4749427216     0.2330610941 m  1  1  1 mag         0.0000000000
    0.3456015799     0.1914787860     0.1003855852 m  1  1  1 mag         0.0000000000
    0.3453622154     0.6909397406     0.1005510110 m  1  1  1 mag         0.0000000000
    0.8456015722     0.1914787751     0.1003855845 m  1  1  1 mag         0.0000000000
    0.8453622224     0.6909397478     0.1005510140 m  1  1  1 mag         0.0000000000
    0.3210335618     0.1419245812     0.5663003756 m  1  1  1 mag         0.0000000000
    0.3212611969     0.6424820363     0.5661372466 m  1  1  1 mag         0.0000000000
    0.8210335544     0.1419245732     0.5663003781 m  1  1  1 mag         0.0000000000
    0.8212612081     0.6424820484     0.5661372477 m  1  1  1 mag         0.0000000000
    0.1787716279     0.3578569899     0.4338462269 m  1  1  1 mag         0.0000000000
    0.1790352446     0.8584155909     0.4336494368 m  1  1  1 mag         0.0000000000
    0.6787716304     0.3578569853     0.4338462256 m  1  1  1 mag         0.0000000000
    0.6790352374     0.8584155779     0.4336494373 m  1  1  1 mag         0.0000000000
    0.1545946674     0.3088235451     0.8994642143 m  1  1  1 mag         0.0000000000
    0.1543285769     0.8082740122     0.8996521544 m  1  1  1 mag         0.0000000000
    0.6545946675     0.3088235469     0.8994642132 m  1  1  1 mag         0.0000000000
    0.6543285787     0.8082740205     0.8996521575 m  1  1  1 mag         0.0000000000
    0.0122040460     0.0243349349     0.7671434003 m  1  1  1 mag         0.0000000000
    0.0124661554     0.5249640043     0.7669487773 m  1  1  1 mag         0.0000000000
    0.5122040543     0.0243349446     0.7671434003 m  1  1  1 mag         0.0000000000
    0.5124661469     0.5249639925     0.7669487741 m  1  1  1 mag         0.0000000000
