ATOMIC_SPECIES
Sc 44.955900 Sc_ONCV_PBE-1.0.upf
Ru 101.070000 Ru_ONCV_PBE_FR-1.0.upf

LATTICE_CONSTANT
1.889726

LATTICE_VECTORS
    9.47273337000     0.00000000000     0.00000000000
    4.73636668500     8.20362774200     0.00000000000
    4.73636668500     2.73454258100     7.73445440900

ATOMIC_POSITIONS
Cartesian

Sc
0.000000
22
   12.33396000000     7.12102000000     1.53104000000 1 1 1 
    9.47273000000     8.77295000000     6.20341000000 1 1 1 
    6.61150000000     7.12102000000     1.53104000000 1 1 1 
    6.61150000000     3.81715000000     6.20341000000 1 1 1 
    9.47273000000     2.16522000000     1.53104000000 1 1 1 
   12.33396000000     3.81715000000     6.20341000000 1 1 1 
    9.47274000000     8.01835000000     2.96592000000 1 1 1 
    7.26501000000     4.19445000000     2.96592000000 1 1 1 
    9.47274000000     5.46908000000     6.57113000000 1 1 1 
   11.68047000000     4.19445000000     2.96592000000 1 1 1 
    9.47273000000     2.91982000000     4.76853000000 1 1 1 
   11.68046000000     6.74372000000     4.76853000000 1 1 1 
    9.47273000000     5.46909000000     1.16332000000 1 1 1 
    7.26500000000     6.74372000000     4.76853000000 1 1 1 
    4.73636000000     4.76918000000     1.21426000000 1 1 1 
    2.97432000000     1.71723000000     1.21426000000 1 1 1 
    4.73636000000     2.73455000000     4.09167000000 1 1 1 
    6.49841000000     1.71723000000     1.21426000000 1 1 1 
   14.20910000000     6.16899000000     6.52019000000 1 1 1 
   15.97115000000     9.22094000000     6.52019000000 1 1 1 
   14.20910000000     8.20363000000     3.64278000000 1 1 1 
   12.44706000000     9.22094000000     6.52019000000 1 1 1 

Ru
0.000000
8
    0.00000000000     0.00000000000     0.00000000000 1 1 1 
    9.47273000000     5.46909000000     3.86723000000 1 1 1 
    7.10455000000     4.10181000000     0.00000000000 1 1 1 
    4.73637000000     5.46909000000     3.86723000000 1 1 1 
    2.36818000000     4.10181000000     0.00000000000 1 1 1 
   11.84092000000     1.36727000000     3.86723000000 1 1 1 
    4.73637000000     0.00000000000     0.00000000000 1 1 1 
    7.10455000000     1.36727000000     3.86723000000 1 1 1 
