ATOMIC_SPECIES
Li 6.941 Li_ONCV_PBE-1.0.upf upf201
Co 58.933 Co_ONCV_PBE-1.0.upf upf201
O 15.999 O_ONCV_PBE-1.0.upf upf201

NUMERICAL_ORBITAL
Li_gga_7au_100Ry_4s1p.orb
Co_gga_8au_100Ry_4s2p2d1f.orb
O_gga_7au_100Ry_2s2p1d.orb

LATTICE_CONSTANT
1.88972612463

LATTICE_VECTORS
    5.6984067193     0.0001089954    -0.0000423962 #latvec1
   -2.8492919238     4.9349142705     0.0000437224 #latvec2
    0.0001400521    -0.0000907826    14.1471901871 #latvec3

ATOMIC_POSITIONS
Direct

Li #label
0 #magnetism
12 #number of atoms
    0.9999998904     0.9999998337     0.9999971890 m  1  1  1 mag         0.0000000000
    0.0000000189     0.5000001339     0.9999972404 m  1  1  1 mag         0.0000000000
    0.5000002399     0.0000000366     0.9999971385 m  1  1  1 mag         0.0000000000
    0.5000003169     0.5000002805     0.9999971938 m  1  1  1 mag         0.0000000000
    0.3333333642     0.1666667582     0.3333311663 m  1  1  1 mag         0.0000000000
    0.3333332433     0.6666663494     0.3333311222 m  1  1  1 mag         0.0000000000
    0.8333333531     0.1666666593     0.3333311856 m  1  1  1 mag         0.0000000000
    0.8333331849     0.6666664317     0.3333311126 m  1  1  1 mag         0.0000000000
    0.1666666078     0.3333333057     0.6666713013 m  1  1  1 mag         0.0000000000
    0.1666667415     0.8333334921     0.6666713408 m  1  1  1 mag         0.0000000000
    0.6666665069     0.3333332347     0.6666713383 m  1  1  1 mag         0.0000000000
    0.6666665639     0.8333334289     0.6666713534 m  1  1  1 mag         0.0000000000

Co #label
1 #magnetism
12 #number of atoms
    0.1666667282     0.3333339844     0.1666554107 m  1  1  1 mag         1.0000000000
    0.1666655749     0.8333323301     0.1666552713 m  1  1  1 mag         1.0000000000
    0.6666673080     0.3333346006     0.1666553367 m  1  1  1 mag         1.0000000000
    0.6666665901     0.8333325107     0.1666552485 m  1  1  1 mag         1.0000000000
    0.9999995496     0.0000006140     0.5000053567 m  1  1  1 mag         1.0000000000
    0.9999992846     0.4999990355     0.5000053246 m  1  1  1 mag         1.0000000000
    0.5000008226     0.0000007255     0.5000053437 m  1  1  1 mag         1.0000000000
    0.4999998580     0.4999998468     0.5000052279 m  1  1  1 mag         1.0000000000
    0.3333342681     0.1666668957     0.8333394468 m  1  1  1 mag         1.0000000000
    0.3333348869     0.6666672718     0.8333395235 m  1  1  1 mag         1.0000000000
    0.8333325203     0.1666655914     0.8333396029 m  1  1  1 mag         1.0000000000
    0.8333325656     0.6666665416     0.8333396088 m  1  1  1 mag         1.0000000000

O #label
0 #magnetism
24 #number of atoms
    0.9999994789     0.0000006955     0.2402739067 m  1  1  1 mag         0.0000000000
    0.9999994394     0.5000005738     0.2402738472 m  1  1  1 mag         0.0000000000
    0.4999994463     0.0000006570     0.2402739587 m  1  1  1 mag         0.0000000000
    0.4999993776     0.5000005645     0.2402738557 m  1  1  1 mag         0.0000000000
    0.3333336534     0.1666660419     0.0930575340 m  1  1  1 mag         0.0000000000
    0.3333337002     0.6666661784     0.0930575983 m  1  1  1 mag         0.0000000000
    0.8333335888     0.1666660305     0.0930575589 m  1  1  1 mag         0.0000000000
    0.8333336625     0.6666661375     0.0930576504 m  1  1  1 mag         0.0000000000
    0.3333327339     0.1666672548     0.5736120883 m  1  1  1 mag         0.0000000000
    0.3333327409     0.6666673525     0.5736121156 m  1  1  1 mag         0.0000000000
    0.8333327895     0.1666673247     0.5736120356 m  1  1  1 mag         0.0000000000
    0.8333328542     0.6666673690     0.5736121134 m  1  1  1 mag         0.0000000000
    0.1666670335     0.3333328285     0.4263939556 m  1  1  1 mag         0.0000000000
    0.1666669837     0.8333327907     0.4263938696 m  1  1  1 mag         0.0000000000
    0.6666669348     0.3333328130     0.4263939577 m  1  1  1 mag         0.0000000000
    0.6666669263     0.8333327294     0.4263939309 m  1  1  1 mag         0.0000000000
    0.1666663961     0.3333338270     0.9069386514 m  1  1  1 mag         0.0000000000
    0.1666664049     0.8333337706     0.9069386363 m  1  1  1 mag         0.0000000000
    0.6666665731     0.3333338815     0.9069385885 m  1  1  1 mag         0.0000000000
    0.6666665327     0.8333338697     0.9069385309 m  1  1  1 mag         0.0000000000
    0.0000007458     0.9999993299     0.7597240442 m  1  1  1 mag         0.0000000000
    0.0000007190     0.4999993375     0.7597239936 m  1  1  1 mag         0.0000000000
    0.5000005931     0.9999992849     0.7597241035 m  1  1  1 mag         0.0000000000
    0.5000006047     0.4999992503     0.7597240904 m  1  1  1 mag         0.0000000000
