ATOMIC_SPECIES
Lu 174.967000 Lu.upf
Ge 72.640000 Ge-low.PD04.PBE.UPF
Pd 106.420000 Pd_ONCV_PBE-1.0.upf

LATTICE_CONSTANT
1.889726

LATTICE_VECTORS
    4.36988200000     0.00000000000     0.00000000000
    0.00000000000     7.60927000200     0.00000000000
   -2.18494100000    -3.80463500100    10.33119500100

ATOMIC_POSITIONS
Cartesian

Lu
0.000000
6
    4.36988000000     3.54342000000     0.00000000000 1 1 1 
    0.00000000000     3.53187000000     6.88008000000 1 1 1 
    2.18494000000    -0.27276000000     3.45112000000 1 1 1 
    2.18494000000     0.36873000000     0.00000000000 1 1 1 
    0.00000000000     4.12518000000     3.44107000000 1 1 1 
    2.18494000000     0.32054000000     6.89012000000 1 1 1 

Ge
0.000000
6
    0.00000000000     6.45539000000     1.35841000000 1 1 1 
    2.18494000000     2.65076000000     8.97279000000 1 1 1 
    0.00000000000     1.21064000000     4.89742000000 1 1 1 
    2.18494000000     5.01527000000     5.43376000000 1 1 1 
    0.00000000000    -1.17463000000     8.42887000000 1 1 1 
    2.18494000000     2.63001000000     1.90232000000 1 1 1 

Pd
0.000000
6
    0.00000000000     1.32740000000     2.17110000000 1 1 1 
    2.18494000000    -2.47723000000     8.16010000000 1 1 1 
    0.00000000000    -1.28078000000     5.54045000000 1 1 1 
    2.18494000000     2.52386000000     4.79074000000 1 1 1 
    0.00000000000     1.35839000000     8.83185000000 1 1 1 
    2.18494000000     5.16303000000     1.49935000000 1 1 1 
