ATOMIC_SPECIES
Al 26.982 Al_ONCV_PBE-1.0.upf
Sb 121.760 Sb_ONCV_PBE-1.0.upf

NUMERICAL_ORBITAL
Al_gga_7au_100Ry_4s4p1d.orb
Sb_gga_7au_100Ry_2s2p2d1f.orb

LATTICE_CONSTANT
1.889716

LATTICE_VECTORS
    0.00000     3.09252     3.09252
    3.09252     0.00000     3.09252
    3.09252     3.09252     0.00000

ATOMIC_POSITIONS
Direct

Al
0.0
1
  0.0000000   0.0000000   0.0000000 1 1 1

Sb
0.0
1
  0.7500000   0.7500000   0.7500000 1 1 1

