INPUT_PARAMETERS
#Parameters (1.General)
calculation     	scf
symmetry   		1

#Parameters (2.Iteration)
ecutwfc			100
scf_thr			1e-7
scf_nmax		100
#Parameters (3.Basis)
basis_type		lcao

#Parameters (4.Smearing)
smearing_method		gauss
smearing_sigma		0.002

#Parameters (5.Mixing)
kspacing    0.08

cal_stress 1
cal_force 1

dft_functional          hse
lcao_ecut 2000
