ATOMIC_SPECIES
Hf 178.490000 Hf_ONCV_PBE-1.1.upf
Co 58.933200 Co_ONCV_PBE-1.0.upf

LATTICE_CONSTANT
1.889726

LATTICE_VECTORS
    4.66883152000     0.00000000000     0.00000000000
    2.33441625700     4.11740500000     0.00000000000
    1.73045975900     0.00000007200     6.01953104200

ATOMIC_POSITIONS
Cartesian

Hf
0.000000
2
    0.86974000000     0.00000000000     1.39568000000 1 1 1 
    7.86397000000     4.11741000000     4.62385000000 1 1 1 

Co
0.000000
7
    4.36685000000     2.05870000000     3.00977000000 1 1 1 
    6.70127000000     2.05870000000     3.00977000000 1 1 1 
    5.55632000000     2.73374000000     5.08689000000 1 1 1 
    3.22191000000     1.38367000000     5.08689000000 1 1 1 
    3.17738000000     1.38367000000     0.93264000000 1 1 1 
    5.51180000000     2.73374000000     0.93264000000 1 1 1 
    3.19965000000     0.00000000000     3.00977000000 1 1 1 
