ATOMIC_SPECIES
K 39.098300 K_ONCV_PBE-1.0.upf
Ga 69.723000 Ga-low.PD04.PBE.UPF

LATTICE_CONSTANT
1.889726

LATTICE_VECTORS
    6.21471799700     0.00000000000     0.00000000000
   -0.00000000100     6.21471799700     0.00000000000
   -3.10735899700    -3.10735899900     7.48070399600

ATOMIC_POSITIONS
Cartesian

K
0.000000
4
    0.00000000000     0.00000000000     5.84025000000 1 1 1 
    3.10736000000     0.00000000000     3.74035000000 1 1 1 
    3.10736000000     3.10736000000     1.64046000000 1 1 1 
    0.00000000000     3.10736000000     3.74035000000 1 1 1 

Ga
0.000000
6
    1.82905000000     0.00000000000     0.00000000000 1 1 1 
    0.00000000000     0.00000000000     2.08315000000 1 1 1 
    6.21472000000     4.38567000000     0.00000000000 1 1 1 
    4.38567000000     0.00000000000     0.00000000000 1 1 1 
    3.10736000000     3.10736000000     5.39755000000 1 1 1 
    0.00000000000     1.82905000000     0.00000000000 1 1 1 
