Sr1
1.0
   3.7153907600000000    0.0000000000000000    2.1450814199999999
   1.2384639300000000    3.5029013500000001    2.1450814199999999
  -0.0000000100000000   -0.0000000100000000    4.2901638799999997
Sr
1
direct
   0.0000000000000000    0.0000000000000000   -0.0000000000000000 Sr
