ATOMIC_SPECIES
In 114.818000 In.PD04.PBE.UPF
Ag 107.868200 Ag_ONCV_PBE_FR-1.0.upf

LATTICE_CONSTANT
1.889726

LATTICE_VECTORS
    5.71559197100     0.00000000000     0.00000000000
   -2.71185484500     5.03128560800     0.00000000000
   -1.50186856300    -2.51564280400     4.90753743500

ATOMIC_POSITIONS
Cartesian

In
0.000000
4
    2.29832000000     2.04015000000     2.45377000000 1 1 1 
    2.10686000000    -1.25782000000     3.97995000000 1 1 1 
   -0.60499000000     3.77346000000     0.92758000000 1 1 1 
   -0.79645000000     0.47549000000     2.45377000000 1 1 1 

Ag
0.000000
2
    2.25280000000     3.77346000000     0.00000000000 1 1 1 
    0.75093000000     1.25782000000     0.00000000000 1 1 1 
