Pt1
1.0
   2.4146763700000000   -0.0000000000000000    1.3941144400000001
   0.8048917900000000    2.2765795400000002    1.3941144400000001
   0.0000000000000000    0.0000000000000000    2.7882278600000001
Pt
1
direct
  -0.0000000000000000    0.0000000000000000   -0.0000000000000000 Pt
