Dy2
1.0
   3.6406219200000001   -0.0000000300000000    0.0000000000000000
  -1.8203119999999999    3.1528706099999999   -0.0000000000000000
   0.0000000000000000    0.0000000000000000    5.5764365099999997
Dy
2
direct
   0.3333330000000000    0.6666670000000000    0.2500000000000000 Dy
   0.6666670000000000    0.3333330000000000    0.7500000000000000 Dy
