ATOMIC_SPECIES
Mg 24.305000 Mg.PD04.PBE.UPF
Al 26.981500 Al.PD04.PBE.upf
V 50.941500 V.upf

LATTICE_CONSTANT
1.889726

LATTICE_VECTORS
   10.32378588000     0.00000000000     0.00000000000
    5.16189294000     8.94066083500     0.00000000000
    5.16189294000     2.98022027800     8.42933587300

ATOMIC_POSITIONS
Cartesian

Mg
0.000000
6
   10.32379000000     5.96044000000     7.37567000000 1 1 1 
    7.74284000000     4.47033000000     3.16100000000 1 1 1 
   10.32379000000     8.94066000000     3.16100000000 1 1 1 
   12.90473000000     4.47033000000     3.16100000000 1 1 1 
   10.32379000000     5.96044000000     4.21467000000 1 1 1 
    5.16189000000     2.98022000000     2.10733000000 1 1 1 

Al
0.000000
36
   14.06878000000     8.12261000000     1.15689000000 1 1 1 
    6.57879000000     3.79827000000     7.27244000000 1 1 1 
   10.32379000000     1.63609000000     1.15689000000 1 1 1 
   10.32379000000    10.28479000000     7.27244000000 1 1 1 
   14.06878000000     3.79827000000     7.27244000000 1 1 1 
    6.57879000000     8.12261000000     1.15689000000 1 1 1 
   16.90258000000     9.75871000000     5.16511000000 1 1 1 
   14.06878000000     8.12261000000     7.47889000000 1 1 1 
   15.48568000000     7.30457000000     5.16511000000 1 1 1 
   15.48568000000    10.57675000000     7.47889000000 1 1 1 
   16.90258000000     8.12261000000     7.47889000000 1 1 1 
   14.06878000000     9.75871000000     5.16511000000 1 1 1 
    7.55008000000     7.56184000000     3.65482000000 1 1 1 
   11.70547000000     3.55535000000     5.91110000000 1 1 1 
   13.09750000000     5.96641000000     5.91110000000 1 1 1 
    8.94211000000     6.75815000000     1.38165000000 1 1 1 
    7.55008000000     5.96641000000     5.91110000000 1 1 1 
   13.09750000000     7.56184000000     3.65482000000 1 1 1 
   11.70547000000     6.75815000000     1.38165000000 1 1 1 
    8.94211000000     3.55535000000     5.91110000000 1 1 1 
    8.93177000000     8.35955000000     5.91110000000 1 1 1 
   10.32379000000     4.36501000000     1.38165000000 1 1 1 
   10.32379000000     2.75764000000     3.65482000000 1 1 1 
   11.71581000000     8.35955000000     5.91110000000 1 1 1 
    7.93559000000     1.37882000000     2.66719000000 1 1 1 
    3.78020000000     5.38531000000     0.41090000000 1 1 1 
    2.38818000000     2.97425000000     0.41090000000 1 1 1 
    6.54357000000     2.18251000000     4.94035000000 1 1 1 
    7.93559000000     2.97425000000     0.41090000000 1 1 1 
    2.38818000000     1.37882000000     2.66719000000 1 1 1 
    3.78020000000     2.18251000000     4.94035000000 1 1 1 
    6.54357000000     5.38531000000     0.41090000000 1 1 1 
    6.55391000000     0.58111000000     0.41090000000 1 1 1 
    5.16189000000     4.57565000000     4.94035000000 1 1 1 
    5.16189000000     6.18302000000     2.66719000000 1 1 1 
    3.76986000000     0.58111000000     0.41090000000 1 1 1 

V
0.000000
4
   15.48568000000     8.94066000000     3.16100000000 1 1 1 
   18.06663000000    10.43077000000     7.37567000000 1 1 1 
   15.48568000000     5.96044000000     7.37567000000 1 1 1 
   12.90473000000    10.43077000000     7.37567000000 1 1 1 
