ATOMIC_SPECIES
Cr 51.996 Cr_ONCV_PBE-1.0.upf upf201
O 15.999 O_ONCV_PBE-1.0.upf upf201

NUMERICAL_ORBITAL
Cr_gga_8au_100Ry_4s2p2d1f.orb
O_gga_7au_100Ry_2s2p1d.orb

LATTICE_CONSTANT
1.88972612463

LATTICE_VECTORS
    6.0262422121     0.0002989715    -0.0003993822 #latvec1
   -3.0135809706     5.2092658922    -0.0005401835 #latvec2
   -0.0048162758     0.4026595557    13.3657407029 #latvec3

ATOMIC_POSITIONS
Direct

Cr #label
2 #magnetism
12 #number of atoms
    0.1673419082     0.3344672502     0.1662104813 m  1  1  1 mag         2.0000000000
    0.1671537819     0.8341489774     0.1661619235 m  1  1  1 mag         2.0000000000
    0.6671755456     0.3344047019     0.1662266837 m  1  1  1 mag         2.0000000000
    0.6670226968     0.8340426468     0.1661856588 m  1  1  1 mag         2.0000000000
    0.9999653856     0.0000490658     0.5000483552 m  1  1  1 mag         2.0000000000
    0.0000338112     0.5001414156     0.5000714378 m  1  1  1 mag         2.0000000000
    0.4999369314     0.0000142186     0.5000587484 m  1  1  1 mag         2.0000000000
    0.4999754428     0.5001324430     0.5000734563 m  1  1  1 mag         2.0000000000
    0.3329640481     0.1659584516     0.8337603371 m  1  1  1 mag         2.0000000000
    0.3327590339     0.6654312439     0.8336934107 m  1  1  1 mag         2.0000000000
    0.8328548866     0.1658316953     0.8337918942 m  1  1  1 mag         2.0000000000
    0.8325757139     0.6653845564     0.8337056894 m  1  1  1 mag         2.0000000000

O #label
0 #magnetism
24 #number of atoms
    0.9980630027     0.9956993617     0.2342907351 m  1  1  1 mag         0.0000000000
    0.9981483228     0.4959069906     0.2344325499 m  1  1  1 mag         0.0000000000
    0.4980207270     0.9959206670     0.2343328625 m  1  1  1 mag         0.0000000000
    0.4981265211     0.4961030370     0.2345115132 m  1  1  1 mag         0.0000000000
    0.3364714354     0.1729264677     0.0980101254 m  1  1  1 mag         0.0000000000
    0.3363909885     0.6727399284     0.0978450929 m  1  1  1 mag         0.0000000000
    0.8362793741     0.1725201503     0.0981223826 m  1  1  1 mag         0.0000000000
    0.8361982095     0.6723770412     0.0979307947 m  1  1  1 mag         0.0000000000
    0.3306760317     0.1612743181     0.5681721773 m  1  1  1 mag         0.0000000000
    0.3307109758     0.6613324437     0.5682268998 m  1  1  1 mag         0.0000000000
    0.8309173517     0.1619066441     0.5682280099 m  1  1  1 mag         0.0000000000
    0.8309492800     0.6619780500     0.5682522957 m  1  1  1 mag         0.0000000000
    0.1690664494     0.3382649906     0.4318818776 m  1  1  1 mag         0.0000000000
    0.1690653029     0.8382210948     0.4318473747 m  1  1  1 mag         0.0000000000
    0.6692436707     0.3388432389     0.4319829827 m  1  1  1 mag         0.0000000000
    0.6692181768     0.8388328762     0.4319198297 m  1  1  1 mag         0.0000000000
    0.1638788269     0.3275746079     0.9020441712 m  1  1  1 mag         0.0000000000
    0.1637463007     0.8273778884     0.9017729065 m  1  1  1 mag         0.0000000000
    0.6636707728     0.3272181479     0.9021096977 m  1  1  1 mag         0.0000000000
    0.6635663506     0.8269424744     0.9019003962 m  1  1  1 mag         0.0000000000
    0.0019983910     0.0042594432     0.7656683246 m  1  1  1 mag         0.0000000000
    0.0018821397     0.5039611943     0.7654940278 m  1  1  1 mag         0.0000000000
    0.5020543007     0.0040331862     0.7656444835 m  1  1  1 mag         0.0000000000
    0.5018981815     0.5037792051     0.7653904680 m  1  1  1 mag         0.0000000000
