LATTICE_CONSTANT
1.8897261246257702

LATTICE_VECTORS
5.997654456410554 -6.095334540908936e-20 -4.996736182525397e-20 
-2.9995321968959567 5.003819089387421 5.125721867981131e-18 
-0.003933901492425369 0.3927017165394901 13.171343444184998 

ATOMIC_POSITIONS
Cartesian    # Cartesian(Unit is LATTICE_CONSTANT)
Cr
2 
12
-0.001364874429 1.739738261221 2.198202048701 1 1 1
-1.502435842369 4.239424620548 2.183521867872 1 1 1
2.997493613204 1.739708662455 2.198168640425 1 1 1
1.496357631361 4.239417819021 2.183535358455 1 1 1
-0.002725094601 0.197014020972 6.585297637260 1 1 1
-1.502065845358 2.699343942248 6.587548420700 1 1 1
2.996201991014 0.196999092451 6.585367287821 1 1 1
1.496743702113 2.699315759379 6.587596905980 1 1 1
1.493515200948 1.156944637900 10.991633352146 1 1 1
-0.005239372748 3.655346951114 10.967427325671 1 1 1
4.492341061333 1.156434604988 10.992148274539 1 1 1
2.993677555919 3.655326885587 10.967165311391 1 1 1
O
0 
24
5.965689015220 0.084147416320 3.131355791741 1 1 1
4.530585871994 2.590739690372 3.138689697506 1 1 1
2.966926952910 0.084117811259 3.131430065823 1 1 1
1.531703218596 2.590809326521 3.138621071395 1 1 1
1.468103952240 0.890399310242 1.251003579223 1 1 1
0.031490178882 3.388041979086 1.244133158563 1 1 1
4.466844830750 0.890475988709 1.250898634968 1 1 1
3.030366355480 3.388037575120 1.244167283537 1 1 1
1.465005473295 1.046966295359 7.529279004868 1 1 1
0.029010489781 3.550145513198 7.531241057785 1 1 1
4.463798988960 1.046889592870 7.529287868338 1 1 1
3.027819227610 3.550139583683 7.531283365990 1 1 1
-0.033781773671 1.849003757462 5.643749296989 1 1 1
-1.470986347833 4.349908909147 5.642477790062 1 1 1
2.965020092168 1.849044531947 5.643672718526 1 1 1
1.527851201481 4.349966217986 5.642412358166 1 1 1
0.028306021885 2.009998106515 11.928417779185 1 1 1
-1.532845333190 4.504251777701 11.916930285462 1 1 1
3.027185370598 2.009884229715 11.928453486367 1 1 1
1.466112988512 4.503951864177 11.917027925194 1 1 1
-0.033872614677 0.309145061176 10.041532301467 1 1 1
-1.470083656575 2.802706477814 10.029557879897 1 1 1
2.964874672592 0.309183107224 10.041529827063 1 1 1
1.528708952483 2.802948449462 10.029418073847 1 1 1

ATOMIC_SPECIES
Cr 51.996 Cr_ONCV_PBE-1.0.upf
O 15.999 O_ONCV_PBE-1.0.upf

NUMERICAL_ORBITAL
Cr_gga_8au_100Ry_4s2p2d1f.orb
O_gga_7au_100Ry_2s2p1d.orb
