ATOMIC_SPECIES
Np 237.000000 Np-5spdf.upf
Si 28.085500 Si.upf

LATTICE_CONSTANT
1.000000

LATTICE_VECTORS
    7.56528594699     0.00000000000     0.00000000000
    0.00000000000     7.56528594699     0.00000000000
    0.00000000000     0.00000000000     7.56528594699

ATOMIC_POSITIONS
Cartesian

Np
0.000000
1
    0.00000000000     0.00000000000     0.00000000000 

Si
0.000000
3
    3.78264297349     0.00000000000     3.78264297349 
    0.00000000000     3.78264297349     3.78264297349 
    3.78264297349     3.78264297349     0.00000000000 
