Li1
1.0
   2.8081870000000002    0.0000000000000000   -0.9928439999999999
  -1.4040930000000000    2.4319609999999998   -0.9928439999999999
   0.0000000000000000    0.0000000000000000    2.9785320000000000
Li
1
direct
   0.0000000000000000    0.0000000000000000    0.0000000000000000 Li
