ATOMIC_SPECIES
Pm 145.000000 Pm.upf
Mg 24.305000 Mg.PD04.PBE.UPF

LATTICE_CONSTANT
1.000000

LATTICE_VECTORS
    7.29827852254     0.00000000000     0.00000000000
    0.00000000000     7.29827852254     0.00000000000
    0.00000000000     0.00000000000     7.29827852254

ATOMIC_POSITIONS
Cartesian

Pm
0.000000
1
    3.64913926127     3.64913926127     3.64913926127 

Mg
0.000000
1
    0.00000000000     0.00000000000     0.00000000000 
