ATOMIC_SPECIES
Ga	1	Ga.upf
P	1	P_ONCV_PBE-1.0.upf

NUMERICAL_ORBITAL
Ga_gga_8au_100Ry_2s2p2d1f.orb
P_gga_7au_100Ry_2s2p1d.orb

LATTICE_CONSTANT
1.889766

LATTICE_VECTORS
0.0	2.724999	2.724999
2.724999	0.0	2.724999
2.724999	2.724999	0.0

ATOMIC_POSITIONS
Direct

Ga
0.0
1
0.0	0.0	0.0	1 1 1

P
0.0
1
0.25	0.25	0.25	1 1 1
