ATOMIC_SPECIES
Ba 137.327000 Ba_ONCV_PBE-1.0.upf
Ce 140.116000 Ce-sp.PD04.PBE.UPF
Pt 195.078000 Pt_ONCV_PBE-1.0.upf
O 15.999400 O.upf

LATTICE_CONSTANT
1.000000

LATTICE_VECTORS
   11.37584167183     0.00000000000     0.00000000000
    5.68792083592     9.85176787724     0.00000000000
    5.68792083592     3.28392262575     9.28833583023

ATOMIC_POSITIONS
Cartesian

Ba
0.000000
2
   17.06376250775     9.85176787724     6.96625187267 
    5.68792083592     3.28392262575     2.32208395756 

Ce
0.000000
1
   11.37584167183     6.56784525149     4.64416791511 

Pt
0.000000
1
    0.00000000000     0.00000000000     0.00000000000 

O
0.000000
6
   14.33921429982     8.27874923597     2.22458429635 
   14.33921429982     4.85694126701     7.06375153388 
    8.41246904384     8.27874923597     2.22458429635 
   11.37584167183     3.14603728254     2.22458429635 
    8.41246904384     4.85694126701     7.06375153388 
   11.37584167183     9.98965322045     7.06375153388 
