ATOMIC_SPECIES
Al	1	Al_ONCV_PBE-1.0.upf
P	1	P_ONCV_PBE-1.0.upf

NUMERICAL_ORBITAL
Al_gga_7au_100Ry_4s4p1d.orb
P_gga_7au_100Ry_2s2p1d.orb

LATTICE_CONSTANT
1.889766

LATTICE_VECTORS
0.0	2.725499	2.725499
2.725499	0.0	2.725499
2.725499	2.725499	0.0

ATOMIC_POSITIONS
Direct

Al
0.0
1
0.0	0.0	0.0	1 1 1

P
0.0
1
0.25	0.25	0.25	1 1 1
