ATOMIC_SPECIES
Na 22.989 Na_ONCV_PBE-1.0.upf upf201
Cr 51.996 Cr_ONCV_PBE-1.0.upf upf201
O 15.999 O_ONCV_PBE-1.0.upf upf201

NUMERICAL_ORBITAL
Na_gga_8au_100Ry_4s2p1d.orb
Cr_gga_8au_100Ry_4s2p2d1f.orb
O_gga_7au_100Ry_2s2p1d.orb

LATTICE_CONSTANT
1.88972612463

LATTICE_VECTORS
    5.9740177934    -0.0043885713    -0.0166032417 #latvec1
   -2.9317997535     5.1767727680     0.0154958856 #latvec2
   -0.2675321575     0.1222268600    16.7464712993 #latvec3

ATOMIC_POSITIONS
Direct

Na #label
0 #magnetism
6 #number of atoms
    0.0001418950     0.4999533055     0.9998890825 m  1  1  1 mag         0.0000000000
    0.5001493427     0.9999419047     0.9998879876 m  1  1  1 mag         0.0000000000
    0.3317388073     0.1647601470     0.3333460534 m  1  1  1 mag         0.0000000000
    0.8317236173     0.6647691608     0.3333461797 m  1  1  1 mag         0.0000000000
    0.1682379825     0.3352322065     0.6667611239 m  1  1  1 mag         0.0000000000
    0.6682862936     0.8351865145     0.6667595956 m  1  1  1 mag         0.0000000000

Cr #label
3 #magnetism
12 #number of atoms
    0.1667666638     0.3327878965     0.1665034291 m  1  1  1 mag         3.0000000000
    0.1667933850     0.8328269354     0.1665445987 m  1  1  1 mag         3.0000000000
    0.6667930133     0.3328250185     0.1665428113 m  1  1  1 mag         3.0000000000
    0.6667650903     0.8327880189     0.1665037037 m  1  1  1 mag         3.0000000000
    0.4996565040     0.5000677326     0.5001733852 m  1  1  1 mag         3.0000000000
    0.4996716054     0.0001095921     0.5002123253 m  1  1  1 mag         3.0000000000
    0.9996710626     0.5001092874     0.5002102158 m  1  1  1 mag         3.0000000000
    0.9996603827     0.0000696827     0.5001727827 m  1  1  1 mag         3.0000000000
    0.3335268598     0.1671068638     0.8332985151 m  1  1  1 mag         3.0000000000
    0.3335213752     0.6671298877     0.8332685455 m  1  1  1 mag         3.0000000000
    0.8335201849     0.1671284769     0.8332694288 m  1  1  1 mag         3.0000000000
    0.8335275645     0.6671065201     0.8332996786 m  1  1  1 mag         3.0000000000

O #label
0 #magnetism
24 #number of atoms
    0.0060012953     0.9901138595     0.2276396671 m  1  1  1 mag         0.0000000000
    0.0034435495     0.5098592041     0.2253194956 m  1  1  1 mag         0.0000000000
    0.5034442724     0.0098608924     0.2253209525 m  1  1  1 mag         0.0000000000
    0.5060007966     0.4901133621     0.2276390679 m  1  1  1 mag         0.0000000000
    0.3302204547     0.1557410397     0.1077193385 m  1  1  1 mag         0.0000000000
    0.3273546893     0.6753705106     0.1054366675 m  1  1  1 mag         0.0000000000
    0.8273552133     0.1753693512     0.1054357679 m  1  1  1 mag         0.0000000000
    0.8302179509     0.6557426549     0.1077205838 m  1  1  1 mag         0.0000000000
    0.3227819266     0.1635303972     0.5588386911 m  1  1  1 mag         0.0000000000
    0.3424980888     0.6610855277     0.5614300703 m  1  1  1 mag         0.0000000000
    0.8424982308     0.1610852827     0.5614295267 m  1  1  1 mag         0.0000000000
    0.8227847547     0.6635282939     0.5588377143 m  1  1  1 mag         0.0000000000
    0.1765684527     0.3366124779     0.4415424777 m  1  1  1 mag         0.0000000000
    0.1569012213     0.8391805838     0.4389468022 m  1  1  1 mag         0.0000000000
    0.6569005202     0.3391796824     0.4389473215 m  1  1  1 mag         0.0000000000
    0.6765666918     0.8366123455     0.4415435793 m  1  1  1 mag         0.0000000000
    0.1701261284     0.3442679945     0.8920839725 m  1  1  1 mag         0.0000000000
    0.1729338989     0.8244645887     0.8943493135 m  1  1  1 mag         0.0000000000
    0.6729330924     0.3244640510     0.8943495263 m  1  1  1 mag         0.0000000000
    0.6701271179     0.8442671217     0.8920839209 m  1  1  1 mag         0.0000000000
    0.9942659436     0.0098151562     0.7722156314 m  1  1  1 mag         0.0000000000
    0.9968287262     0.4900119814     0.7744761958 m  1  1  1 mag         0.0000000000
    0.4968304001     0.9900106606     0.7744764436 m  1  1  1 mag         0.0000000000
    0.4942656454     0.5098141478     0.7722154575 m  1  1  1 mag         0.0000000000
