ATOMIC_SPECIES
Mg 24.305000 Mg.PD04.PBE.UPF
Co 58.933200 Co_ONCV_PBE-1.0.upf

LATTICE_CONSTANT
1.889726

LATTICE_VECTORS
    4.83426599700     0.00000000000     0.00000000000
   -2.41713299800     4.18659799700     0.00000000000
    0.00000000000     0.00000000000     7.85542900000

ATOMIC_POSITIONS
Cartesian

Mg
0.000000
4
    2.41713000000     1.39553000000     7.35784000000 1 1 1 
    2.41713000000     1.39553000000     4.42530000000 1 1 1 
    0.00000000000     2.79107000000     3.43013000000 1 1 1 
    0.00000000000     2.79107000000     0.49759000000 1 1 1 

Co
0.000000
8
    0.00000000000     0.00000000000     0.00000000000 1 1 1 
    1.17700000000     3.47060000000     5.89157000000 1 1 1 
    0.00000000000     1.43198000000     5.89157000000 1 1 1 
   -1.17700000000     3.47060000000     5.89157000000 1 1 1 
    0.00000000000     0.00000000000     3.92771000000 1 1 1 
    3.59413000000     0.71600000000     1.96386000000 1 1 1 
    2.41713000000     2.75461000000     1.96386000000 1 1 1 
    1.24014000000     0.71600000000     1.96386000000 1 1 1 
