ATOMIC_SPECIES
Zn	1	Zn_ONCV_PBE-1.0.upf
Se	1	Se_ONCV_PBE-1.0.upf

NUMERICAL_ORBITAL
Zn_gga_8au_100Ry_4s2p2d1f.orb
Se_gga_8au_100Ry_2s2p1d.orb

LATTICE_CONSTANT
1.889766

LATTICE_VECTORS
0.0	2.834969	2.834969
2.834969	0.0	2.834969
2.834969	2.834969	0.0

ATOMIC_POSITIONS
Direct

Zn
0.0
1
0.0	0.0	0.0	1 1 1

Se
0.0
1
0.25	0.25	0.25	1 1 1
