ATOMIC_SPECIES
Mg	1	Mg_ONCV_PBE-1.0.upf
S	1	S_ONCV_PBE-1.0.upf

NUMERICAL_ORBITAL
Mg_gga_8au_100Ry_4s2p1d.orb
S_gga_7au_100Ry_2s2p1d.orb

LATTICE_CONSTANT
1.889766

LATTICE_VECTORS
0.0	2.6015	2.6015
2.6015	0.0	2.6015
2.6015	2.6015	0.0

ATOMIC_POSITIONS
Direct

Mg
0.0
1
0.0	0.0	0.0	1 1 1

S
0.0
1
0.5	0.5	0.5	1 1 1
