ATOMIC_SPECIES
Li 6.941000 Li.upf
Tm 168.934200 Tm.upf
Sn 118.710000 Sn_ONCV_PBE-1.1.upf

LATTICE_CONSTANT
1.889726

LATTICE_VECTORS
    4.30912400200     0.00000000000     0.00000000000
    0.00000000000     4.48389900000     0.00000000000
   -2.15456200100     0.00000000000     9.61167100400

ATOMIC_POSITIONS
Cartesian

Li
0.000000
2
    2.15456000000     3.36292000000     3.31908000000 1 1 1 
    0.00000000000     1.12097000000     6.29259000000 1 1 1 

Tm
0.000000
2
    2.15456000000     3.36292000000     7.58413000000 1 1 1 
    0.00000000000     1.12097000000     2.02754000000 1 1 1 

Sn
0.000000
4
    2.15456000000     3.36292000000     0.86667000000 1 1 1 
    0.00000000000     1.12097000000     8.74501000000 1 1 1 
    0.00000000000     3.36292000000     4.84203000000 1 1 1 
    2.15456000000     1.12097000000     4.76964000000 1 1 1 
