ATOMIC_SPECIES
Zn 65.390000 Zn_ONCV_PBE-1.0.upf
Ni 58.693400 Ni_ONCV_PBE-1.0.upf
Ge 72.640000 Ge-low.PD04.PBE.UPF

LATTICE_CONSTANT
1.889726

LATTICE_VECTORS
    4.10890841000     0.00000000000     0.00000000000
    2.05445420500     3.55841906500     0.00000000000
    2.05445420500     1.18613968800     3.35490966800

ATOMIC_POSITIONS
Cartesian

Zn
0.000000
1
    0.00000000000     0.00000000000     0.00000000000 1 1 1 

Ni
0.000000
2
    6.16336000000     3.55842000000     2.51618000000 1 1 1 
    2.05445000000     1.18614000000     0.83873000000 1 1 1 

Ge
0.000000
1
    4.10891000000     2.37228000000     1.67745000000 1 1 1 
