ATOMIC_SPECIES
Fe 55.845 Fe_ONCV_PBE-1.0.upf upf201
O 15.999 O_ONCV_PBE-1.0.upf upf201

NUMERICAL_ORBITAL
Fe_gga_8au_100Ry_4s2p2d1f.orb
O_gga_7au_100Ry_2s2p1d.orb

LATTICE_CONSTANT
1.88972612463

LATTICE_VECTORS
   10.9514090634    -0.0000028608    -0.1404714453 #latvec1
   -0.0000064621     5.7118385987    -0.0000080924 #latvec2
   -4.2979755275    -0.0000021188     9.5264566078 #latvec3

ATOMIC_POSITIONS
Direct

Fe #label
4 #magnetism
16 #number of atoms
    0.9999961782     0.0000046194     0.9999867800 m  1  1  1 mag         4.0000000000
    0.9999886781     0.9999946636     0.4999955828 m  1  1  1 mag         4.0000000000
    0.9999961502     0.5000044250     0.9999868532 m  1  1  1 mag         4.0000000000
    0.9999884501     0.4999945792     0.4999955655 m  1  1  1 mag         4.0000000000
    0.4999843546     0.0000041025     0.9999822873 m  1  1  1 mag         4.0000000000
    0.5000041870     0.9999962001     0.5000056052 m  1  1  1 mag         4.0000000000
    0.4999843203     0.5000036667     0.9999821523 m  1  1  1 mag         4.0000000000
    0.5000037133     0.4999967124     0.5000050734 m  1  1  1 mag         4.0000000000
    0.2497785996     0.2500040811     0.0001811151 m  1  1  1 mag         4.0000000000
    0.2497837076     0.2499949176     0.5001968666 m  1  1  1 mag         4.0000000000
    0.2497787300     0.7500040863     0.0001811256 m  1  1  1 mag         4.0000000000
    0.2497837629     0.7499963482     0.5001969257 m  1  1  1 mag         4.0000000000
    0.7502019777     0.2500045602     0.9997862822 m  1  1  1 mag         4.0000000000
    0.7502117002     0.2499952028     0.4998057697 m  1  1  1 mag         4.0000000000
    0.7502020656     0.7500039439     0.9997863422 m  1  1  1 mag         4.0000000000
    0.7502116011     0.7499957132     0.4998057981 m  1  1  1 mag         4.0000000000

O #label
0 #magnetism
32 #number of atoms
    0.1368855494     0.9999961645     0.3978258281 m  1  1  1 mag         0.0000000000
    0.1368968871     0.0000051690     0.8978307057 m  1  1  1 mag         0.0000000000
    0.1368856344     0.4999962154     0.3978259312 m  1  1  1 mag         0.0000000000
    0.1368969525     0.5000048062     0.8978308530 m  1  1  1 mag         0.0000000000
    0.6375092642     0.9999961462     0.3973427052 m  1  1  1 mag         0.0000000000
    0.6375222749     0.0000048464     0.8973507156 m  1  1  1 mag         0.0000000000
    0.6375092825     0.4999964813     0.3973422317 m  1  1  1 mag         0.0000000000
    0.6375224398     0.5000048506     0.8973508538 m  1  1  1 mag         0.0000000000
    0.3624963785     0.0000038585     0.1026649929 m  1  1  1 mag         0.0000000000
    0.3624839949     0.9999952755     0.6026570820 m  1  1  1 mag         0.0000000000
    0.3624963277     0.5000040841     0.1026648814 m  1  1  1 mag         0.0000000000
    0.3624840286     0.4999951829     0.6026568838 m  1  1  1 mag         0.0000000000
    0.8631226603     0.0000038497     0.1021817761 m  1  1  1 mag         0.0000000000
    0.8631096632     0.9999954189     0.6021764895 m  1  1  1 mag         0.0000000000
    0.8631225168     0.5000038765     0.1021815712 m  1  1  1 mag         0.0000000000
    0.8631099036     0.4999952638     0.6021766809 m  1  1  1 mag         0.0000000000
    0.3872012244     0.2499962430     0.3977666899 m  1  1  1 mag         0.0000000000
    0.3872156827     0.2500045229     0.8977768725 m  1  1  1 mag         0.0000000000
    0.3872011491     0.7499959789     0.3977666547 m  1  1  1 mag         0.0000000000
    0.3872157345     0.7500046266     0.8977769767 m  1  1  1 mag         0.0000000000
    0.8872978799     0.2499961297     0.3971953621 m  1  1  1 mag         0.0000000000
    0.8873077597     0.2500053586     0.8971973227 m  1  1  1 mag         0.0000000000
    0.8872979643     0.7499959252     0.3971952907 m  1  1  1 mag         0.0000000000
    0.8873078434     0.7500054472     0.8971973952 m  1  1  1 mag         0.0000000000
    0.1127077255     0.2500044350     0.1028116924 m  1  1  1 mag         0.0000000000
    0.1126979583     0.2499950034     0.6028096629 m  1  1  1 mag         0.0000000000
    0.1127077471     0.7500044130     0.1028116395 m  1  1  1 mag         0.0000000000
    0.1126979766     0.7499951091     0.6028096065 m  1  1  1 mag         0.0000000000
    0.6128054949     0.2500035749     0.1022412765 m  1  1  1 mag         0.0000000000
    0.6127904443     0.2499950317     0.6022310905 m  1  1  1 mag         0.0000000000
    0.6128053859     0.7500035934     0.1022412262 m  1  1  1 mag         0.0000000000
    0.6127902982     0.7499951757     0.6022312019 m  1  1  1 mag         0.0000000000
