ATOMIC_SPECIES
Si 28.085 Si_ONCV_PBE-1.0.upf

NUMERICAL_ORBITAL
Si_gga_7au_100Ry_2s2p1d.orb

LATTICE_CONSTANT
1.889716

LATTICE_VECTORS
    3.83959     0.00000     0.00000
    1.91979     3.32518     0.00000
    1.91979     1.10839     3.13501

ATOMIC_POSITIONS
Direct

Si
0.0
2
  0.0000000   0.0000000   0.0000000 1 1 1
  0.2500000   0.2500000   0.2500000 1 1 1

