ATOMIC_SPECIES
Th 232.038100 Th-5spdf_r.upf
Hg 200.590000 Hg.PD04.PBE.UPF

LATTICE_CONSTANT
1.000000

LATTICE_VECTORS
    9.31679163025     0.00000000000     0.00000000000
   -4.65839576724     8.06857826120     0.00000000000
    0.00000000000     0.00000000000    14.21340742855

ATOMIC_POSITIONS
Cartesian

Th
0.000000
2
    0.00000000000     0.00000000000     3.55335185714 
    0.00000000000     0.00000000000    10.66005557141 

Hg
0.000000
4
   -0.00000462648     5.37905486366     0.59059550547 
    4.65840048948     2.68952339754     7.69729921975 
    4.65840048948     2.68952339754    13.62281192308 
   -0.00000462648     5.37905486366     6.51610820880 
