ATOMIC_SPECIES
Ge 72.640 Ge_ONCV_PBE-1.0.upf

NUMERICAL_ORBITAL
Ge_gga_8au_100Ry_2s2p2d1f.orb

LATTICE_CONSTANT
1.889716

LATTICE_VECTORS
    0.00000     2.83743     2.83743
    2.83743     0.00000     2.83743
    2.83743     2.83743     0.00000

ATOMIC_POSITIONS
Direct

Ge
0.0
2
  0.5000000   0.5000000   0.5000000 1 1 1
  0.7500000   0.7500000   0.7500000 1 1 1

