ATOMIC_SPECIES
Ta 180.947900 Ta_ONCV_PBE-1.0.upf
Co 58.933200 Co_ONCV_PBE-1.0.upf
Si 28.085500 Si.upf

LATTICE_CONSTANT
1.889726

LATTICE_VECTORS
    4.97966599800     0.00000000000     0.00000000000
    2.48983300000     8.87209565000     0.00000000000
    2.48983299900     0.00000000000     8.87209564900

ATOMIC_POSITIONS
Cartesian

Ta
0.000000
8
    4.97967000000     2.37298000000     0.00000000000 1 1 1 
    2.48983000000     6.49911000000     0.00000000000 1 1 1 
    2.48983000000     0.00000000000     6.49911000000 1 1 1 
    4.97967000000     0.00000000000     2.37298000000 1 1 1 
    4.97967000000     7.18760000000     1.68450000000 1 1 1 
    4.97967000000     1.68450000000     7.18760000000 1 1 1 
    2.48983000000     1.68450000000     1.68450000000 1 1 1 
    7.46950000000     7.18760000000     7.18760000000 1 1 1 

Co
0.000000
8
    3.73475000000     7.07358000000     4.43605000000 1 1 1 
    3.73475000000     1.79852000000     4.43605000000 1 1 1 
    3.73475000000     4.43605000000     1.79852000000 1 1 1 
    3.73475000000     4.43605000000     7.07358000000 1 1 1 
    6.22458000000     4.43605000000     1.79852000000 1 1 1 
    6.22458000000     4.43605000000     7.07358000000 1 1 1 
    6.22458000000     7.07358000000     4.43605000000 1 1 1 
    6.22458000000     1.79852000000     4.43605000000 1 1 1 

Si
0.000000
14
    4.97967000000     5.27490000000     3.59719000000 1 1 1 
    4.97967000000     3.59719000000     5.27490000000 1 1 1 
    2.48983000000     3.59719000000     3.59719000000 1 1 1 
    7.46950000000     5.27490000000     5.27490000000 1 1 1 
    3.74051000000     0.00000000000     0.00000000000 1 1 1 
    1.23916000000     0.00000000000     0.00000000000 1 1 1 
    4.97967000000     5.16523000000     0.00000000000 1 1 1 
    2.48983000000     3.70687000000     0.00000000000 1 1 1 
    2.48983000000     0.00000000000     3.70687000000 1 1 1 
    4.97967000000     0.00000000000     5.16523000000 1 1 1 
    7.46950000000     2.63043000000     6.24167000000 1 1 1 
    2.48983000000     6.24167000000     2.63043000000 1 1 1 
    4.97967000000     6.24167000000     6.24167000000 1 1 1 
    4.97967000000     2.63043000000     2.63043000000 1 1 1 
