Ru2
1.0
   2.7078264299999999   -0.0000000000000000    0.0000000000000000
  -1.3539132100000000    2.3450462800000000    0.0000000000000000
  -0.0000000000000000    0.0000000000000000    4.2681017800000003
Ru
2
direct
   0.3333330000000000    0.6666670000000000    0.2500000000000000 Ru
   0.6666670000000000    0.3333330000000000    0.7500000000000000 Ru
