ATOMIC_SPECIES
Al 26.982 ./Al_ONCV_PBE-1.0.upf
Hf 178.490 ./Hf_ONCV_PBE-1.0.upf
Mg 24.305 ./Mg_ONCV_PBE-1.0.upf

NUMERICAL_ORBITAL
./Al_gga_7au_100Ry_4s4p1d.orb
./Hf_gga_7au_100Ry_4s2p2d2f1g.orb
./Mg_gga_8au_100Ry_4s2p1d.orb

LATTICE_CONSTANT
1.889716

LATTICE_VECTORS
    7.40676    -4.27629     3.02380
   -0.00000     8.55259     3.02380
   -7.40676    -4.27629     3.02380

ATOMIC_POSITIONS
Direct

Al
0.0
12
  0.8151784   0.6361699  -0.0000000 1 1 1
  0.6361698   0.8151782  -0.0000000 1 1 1
  0.3638306   0.3638304   0.1790077 1 1 1
  0.8209916   0.1848223   0.1848224 1 1 1
  0.1848227   0.8209909   0.1848227 1 1 1
  0.1790077   0.3638304   0.3638306 1 1 1
  0.3638308   0.1790072   0.3638308 1 1 1
 -0.0000000   0.8151782   0.6361698 1 1 1
  0.8151778   0.0000000   0.6361702 1 1 1
  0.6361702   0.0000000   0.8151778 1 1 1
 -0.0000000   0.6361699   0.8151784 1 1 1
  0.1848224   0.1848223   0.8209916 1 1 1

Hf
0.0
1
  0.0000000   0.0000000   0.0000000 1 1 1

Mg
0.0
16
 -0.0000000   0.3484670  -0.0000000 1 1 1
  0.3484663   0.0000000  -0.0000000 1 1 1
  0.6040187   0.3183755   0.0000000 1 1 1
  0.3183759   0.6040182   0.0000000 1 1 1
  0.6816247   0.6816249   0.2856421 1 1 1
  0.6040187  -0.0000000   0.3183758 1 1 1
  0.0000000   0.6040182   0.3183759 1 1 1
 -0.0000000   0.0000000   0.3484663 1 1 1
  0.7143585   0.3959834   0.3959830 1 1 1
  0.3959830   0.7143589   0.3959830 1 1 1
  0.3183758  -0.0000000   0.6040187 1 1 1
  0.0000000   0.3183755   0.6040187 1 1 1
  0.6515323   0.6515324   0.6515323 1 1 1
  0.6816244   0.2856429   0.6816244 1 1 1
  0.2856421   0.6816249   0.6816247 1 1 1
  0.3959830   0.3959834   0.7143585 1 1 1

