ATOMIC_SPECIES
Li 6.941 ./Li_ONCV_PBE-1.0.upf
C 12.011 ./C_ONCV_PBE-1.0.upf
H 1.008 ./H_ONCV_PBE-1.0.upf
O 15.999 ./O_ONCV_PBE-1.0.upf

NUMERICAL_ORBITAL
./Li_gga_7au_100Ry_4s1p.orb
./C_gga_7au_100Ry_2s2p1d.orb
./H_gga_6au_100Ry_2s1p.orb
./O_gga_7au_100Ry_2s2p1d.orb

LATTICE_CONSTANT
1.889716

LATTICE_VECTORS
   13.70000     0.00000     0.00000
    0.00000    43.81000     0.00000
    0.00000     0.00000    13.70000

ATOMIC_POSITIONS
Cartesian

Li
0.0
128
  3.3899965   2.7199877   0.0299756 1 1 1
  1.6700026   1.0000071   1.7387355 1 1 1
  6.8199970   2.7199877   0.0299756 1 1 1
  5.1000031   1.0000071   1.7387355 1 1 1
 10.2499975   2.7199877   0.0299756 1 1 1
  8.5300036   1.0000071   1.7387355 1 1 1
 13.6799980   2.7199877   0.0299756 1 1 1
 11.9600041   1.0000071   1.7387355 1 1 1
  3.3899965   2.7199877   3.4574827 1 1 1
  1.6700026   1.0000071   5.1762162 1 1 1
  6.8199970   2.7199877   3.4574827 1 1 1
  5.1000031   1.0000071   5.1762162 1 1 1
 10.2499975   2.7199877   3.4574827 1 1 1
  8.5300036   1.0000071   5.1762162 1 1 1
 13.6799980   2.7199877   3.4574827 1 1 1
 11.9600041   1.0000071   5.1762162 1 1 1
  3.3899965   2.7199877   6.8849761 1 1 1
  1.6700026   1.0000071   8.6037233 1 1 1
  6.8199970   2.7199877   6.8849761 1 1 1
  5.1000031   1.0000071   8.6037233 1 1 1
 10.2499975   2.7199877   6.8849761 1 1 1
  8.5300036   1.0000071   8.6037233 1 1 1
 13.6799980   2.7199877   6.8849761 1 1 1
 11.9600041   1.0000071   8.6037233 1 1 1
  3.3899965   2.7199877  10.3124695 1 1 1
  1.6700026   1.0000071  12.0312167 1 1 1
  6.8199970   2.7199877  10.3124695 1 1 1
  5.1000031   1.0000071  12.0312167 1 1 1
 10.2499975   2.7199877  10.3124695 1 1 1
  8.5300036   1.0000071  12.0312167 1 1 1
 13.6799980   2.7199877  10.3124695 1 1 1
 11.9600041   1.0000071  12.0312167 1 1 1
  3.4040527   6.1337505   0.0421275 1 1 1
  3.3107557   9.4282187   0.1018595 1 1 1
  3.0625528  13.2084083  13.4988429 1 1 1
  1.6870454   4.4380406   1.7463664 1 1 1
  1.6644267   7.7232211   1.7465856 1 1 1
  2.0459854  10.8244872   2.0635488 1 1 1
  6.8083657   6.1308152   0.0380038 1 1 1
  6.7679096   9.4187119   0.0145768 1 1 1
  7.2455053  13.2559860   0.1293691 1 1 1
  5.1132236   4.4308996   1.7421331 1 1 1
  5.1216765   7.7631320   1.6855247 1 1 1
  5.1992048  11.0933930   1.5541965 1 1 1
 10.2486001   6.0762718   0.0386614 1 1 1
 10.3231007   9.2597692   0.0703495 1 1 1
 10.3093048  12.6277068   0.3652420 1 1 1
  8.5312914   4.4366387   1.7482022 1 1 1
  8.5218247   7.7834160   1.7353516 1 1 1
  8.4322130  10.9893880   1.9786362 1 1 1
 13.6686955   6.0782870   0.0366338 1 1 1
 13.6701066   9.1604958   0.0200979 1 1 1
  0.3450893  12.0707064   0.6071429 1 1 1
 11.9587026   4.4330463   1.7540795 1 1 1
 11.9446053   7.7492880   1.8417321 1 1 1
 11.9016010  10.9436942   1.9348236 1 1 1
  3.4080257   6.0710584   3.4561675 1 1 1
  3.5167352   9.2104392   3.4770737 1 1 1
  3.7618556  12.5421897   3.5320655 1 1 1
  1.6868536   4.4294539   5.1661330 1 1 1
  1.6547408   7.7095524   5.1416511 1 1 1
  1.7729718  10.9248997   5.1855048 1 1 1
  6.8157500   6.0979139   3.4532905 1 1 1
  6.7080406   9.3209718   3.4158758 1 1 1
  6.9359127  13.0326864   3.5307914 1 1 1
  5.1129770   4.4185890   5.1702567 1 1 1
  5.1411579   7.6403764   5.1711061 1 1 1
  5.3134765  10.7950907   5.2392499 1 1 1
 10.2238990   6.1375620   3.4613872 1 1 1
 10.1280949   9.4965185   3.4888694 1 1 1
 10.1513027  13.7128805   3.7280303 1 1 1
  8.5304420   4.4363758   5.1672975 1 1 1
  8.5154953   7.7776769   5.1282799 1 1 1
  8.4018675  10.9772088   5.1071956 1 1 1
 13.6796007   6.1167084   3.4575923 1 1 1
  0.0938724   9.4635295   3.4165608 1 1 1
 13.6465974  13.3545147   3.6368020 1 1 1
 11.9601000   4.4215243   5.1582007 1 1 1
 11.9437011   7.6901445   5.0642324 1 1 1
 11.9473042  10.8260205   4.8370864 1 1 1
  3.3999153   6.0556811   6.8773726 1 1 1
  3.4757585   9.1398612   6.8540689 1 1 1
  3.4910203  12.3273892   7.1191639 1 1 1
  1.6927446   4.4222252   8.6001613 1 1 1
  1.7234874   7.6395002   8.6228622 1 1 1
  1.8369508  10.7408977   8.4918765 1 1 1
  6.8180653   6.0903786   6.8745778 1 1 1
  6.7832947   9.2636245   6.9262679 1 1 1
  6.9536405  12.4302113   7.3716138 1 1 1
  5.1117851   4.4354558   8.5988461 1 1 1
  5.1134017   7.7367146   8.6544544 1 1 1
  5.1431033  10.7628903   9.2210727 1 1 1
 10.2428050   6.0227797   6.8783316 1 1 1
 10.2792059   9.0832587   6.8910041 1 1 1
 10.1661946  12.0718017   6.5997695 1 1 1
  8.5227015   4.4109222   8.5939278 1 1 1
  8.4578868   7.6132142   8.5897356 1 1 1
  8.5072205  10.6163021   8.6797720 1 1 1
 13.6682982   6.0505553   6.8748518 1 1 1
 13.6075935   9.2684436   6.8805236 1 1 1
 13.4767996  12.6599071   6.8874832 1 1 1
 11.9641963   4.3996631   8.5937634 1 1 1
 11.9700051   7.5992388   8.6088882 1 1 1
 11.9533048  10.8771030   8.8482272 1 1 1
  3.4113274   6.1339695  10.3160726 1 1 1
  3.2843010   9.4788192  10.3052770 1 1 1
  3.7717196  13.6719181  10.3285670 1 1 1
  1.6961833   4.4448312  12.0213253 1 1 1
  1.7509148   7.7292231  12.0242297 1 1 1
  1.9410160  10.9372979  12.0630966 1 1 1
  6.8115715   6.1090416  10.3178673 1 1 1
  6.9672446   9.4202453  10.4298922 1 1 1
  6.8853323  12.9370930  10.7720360 1 1 1
  5.1108398   4.4513150  12.0226268 1 1 1
  5.0839467   7.8907943  11.9874452 1 1 1
  4.9907593  11.1612985  12.2076864 1 1 1
 10.2412021   6.0141930  10.3106748 1 1 1
 10.2540938   9.1176934  10.4099039 1 1 1
  9.7603732  12.5347858  10.4256863 1 1 1
  8.5233043   4.4210861  12.0288192 1 1 1
  8.4745186   7.6253934  12.0543971 1 1 1
  8.5010281  10.6665959  12.5435419 1 1 1
 13.6685996   6.0520886  10.3170727 1 1 1
  0.0000000   9.2092563  10.3600359 1 1 1
  0.7587334  12.5545879  10.2345302 1 1 1
 11.9643059   4.4211300  12.0254216 1 1 1
 11.9687036   7.6922474  12.0474101 1 1 1
 12.0904966  11.1446945  12.1112658 1 1 1

C
0.0
75
  6.9758893  26.6685051   1.2236703 1 1 1
  5.5056053  27.0571874   1.0722031 1 1 1
  6.1010758  27.0531131   3.3187839 1 1 1
 10.2306942  23.2079094   4.6509445 1 1 1
 10.5243948  21.9209907   3.9335166 1 1 1
 11.0712029  21.5890861   6.2018667 1 1 1
  6.5654921  19.2583941  11.3506144 1 1 1
  7.7898885  19.6543051  12.1573252 1 1 1
  6.4545906  21.5397998  11.8615422 1 1 1
  9.9682296  21.8201838  10.7133863 1 1 1
 11.1179062  21.5829965   9.7550850 1 1 1
 11.6135996  20.5506139  11.6009271 1 1 1
  1.3937969  20.9558125  12.2738437 1 1 1
  2.7993758  21.3027001  11.8559526 1 1 1
  1.3408464  22.2676154  10.4391808 1 1 1
  0.9953872  21.9413185   7.2390389 1 1 1
  1.5970775  21.8500185   5.8519550 1 1 1
  0.0929956  20.1059862   6.1827826 1 1 1
  2.3830465  27.3496192   4.0893678 1 1 1
  1.2746069  27.0548217   4.7895885 1 1 1
  1.1419087  25.3344030   0.1483025 1 1 1
 11.7244052  15.9889852   6.5757534 1 1 1
 10.2629988  15.9836842   6.8548635 1 1 1
 11.5026022  15.2714212   8.7770557 1 1 1
  4.9785937  27.1052032  10.2455176 1 1 1
  4.8280718  26.5439971  11.6159149 1 1 1
  2.8031570  27.6275060  11.3533133 1 1 1
 10.3106063  18.5223861   3.2890549 1 1 1
 11.6633991  17.8339119   3.3440604 1 1 1
 11.8571034  19.6950046   1.9420161 1 1 1
  4.9910333  16.0995179   1.6591522 1 1 1
  4.8144129  16.8306191   0.3429110 1 1 1
  7.0652818  16.9270011   0.9530953 1 1 1
 10.0886937  27.0623132   2.0752212 1 1 1
 10.8175063  27.1289920   3.3996276 1 1 1
 11.1366067  24.9858068   2.5144706 1 1 1
  7.2249142  20.8649944   4.3787392 1 1 1
  5.7253259  20.6893163   4.2743452 1 1 1
  6.7216858  20.6696018   2.1295554 1 1 1
  5.9201810  24.5413982   5.9841874 1 1 1
  4.6691107  25.3967884   5.8984802 1 1 1
  4.3359267  23.6178834   7.3387064 1 1 1
  9.5060327  16.2450985  11.4176622 1 1 1
 10.4156990  17.4585040  11.2661813 1 1 1
 11.5668963  16.0674927  12.5388428 1 1 1
  8.1968196  24.4829118  11.1590610 1 1 1
  7.2061863  25.6910164  11.1941330 1 1 1
  8.9803363  26.4403864  12.0596031 1 1 1
  3.6164164  18.7964176   9.2871752 1 1 1
  2.2371826  18.1681822   9.3743072 1 1 1
  2.8963444  18.4677988   7.1302198 1 1 1
  2.5762850  23.8144150   3.5970583 1 1 1
  1.0981509  24.1203841   3.3831054 1 1 1
  1.5709516  21.8757787   2.7568099 1 1 1
  4.9857177  22.4850882   1.4390206 1 1 1
  4.2772907  23.6485066   0.8140677 1 1 1
  5.5272787  24.3468818   2.7711127 1 1 1
  0.5867573  26.0832035   9.1666700 1 1 1
  1.7560934  26.1833970   8.2034230 1 1 1
  2.3899650  25.0286092  10.2064452 1 1 1
 11.8083040  24.4355970  11.2168065 1 1 1
 11.3697944  25.6236804  10.4450718 1 1 1
 11.9439066  26.5538105  12.6645540 1 1 1
  8.9191658  20.2966035   8.4108821 1 1 1
  8.4184719  19.9597922   7.0281548 1 1 1
  8.1499519  18.0640021   8.4381999 1 1 1
  5.8352547  16.4864916   4.7078269 1 1 1
  7.3591742  16.4213023   4.8546224 1 1 1
  6.2966570  15.2942024   6.5609848 1 1 1
 10.4087942  27.0245928   6.9639840 1 1 1
  9.2616247  26.2538873   6.3610196 1 1 1
 10.3124969  24.8475863   7.7838605 1 1 1
  2.4111452  16.0429153   4.0555151 1 1 1
  1.0900542  16.6484133   4.3752046 1 1 1
  1.8391154  15.5545214   6.3860221 1 1 1

H
0.0
100
  7.0281822  25.5994973   1.3192141 1 1 1
  7.6281463  26.9777161   0.3991084 1 1 1
  4.9312465  26.3639818   0.4257823 1 1 1
  5.3604401  27.9878871   0.5102291 1 1 1
 10.9108033  24.0158096   4.3860824 1 1 1
  9.2154420  23.5890126   4.5456874 1 1 1
 11.2003939  22.0125974   3.0913365 1 1 1
  9.6398269  21.4463093   3.5324080 1 1 1
  6.7604705  19.1366023  10.2924812 1 1 1
  6.0832795  18.3485918  11.6887715 1 1 1
  8.7242285  19.2820077  11.7689028 1 1 1
  7.7438291  19.2771010  13.1721801 1 1 1
  9.5189655  22.8243967  10.6228430 1 1 1
  9.1264742  21.1460794  10.6158560 1 1 1
 11.9319054  22.2967928   9.8571500 1 1 1
 10.8266031  21.6678127   8.7428331 1 1 1
  1.0758747  20.0425055  11.7922887 1 1 1
  1.2123541  20.8454113  13.3304699 1 1 1
  3.5313942  20.5237145  12.0428069 1 1 1
  3.2030874  22.1972127  12.3306987 1 1 1
  1.7639161  22.1315853   7.9909086 1 1 1
  0.2252006  22.7072925   7.3151561 1 1 1
  2.5796689  21.3730152   5.8834376 1 1 1
  1.7010742  22.7942116   5.3186414 1 1 1
  2.4461350  27.1303063   3.0179045 1 1 1
  3.2692721  27.7793953   4.5280966 1 1 1
  0.3479526  26.6826119   4.4013716 1 1 1
  1.1915849  27.3636822   5.8240207 1 1 1
 11.9200960  15.0701143   6.0169441 1 1 1
 12.0490952  16.8064798   5.9357853 1 1 1
  9.6959832  15.7188089   5.9487318 1 1 1
  9.9471453  16.9758055   7.1667029 1 1 1
  5.8065669  27.8097118  10.1299033 1 1 1
  5.0214884  26.3674866   9.4410810 1 1 1
  5.4897407  27.1005155  12.3098199 1 1 1
  4.9838271  25.4596996  11.7722045 1 1 1
  9.5615451  17.9504027   2.7418495 1 1 1
  9.8818100  18.7402094   4.2637551 1 1 1
 11.6185042  16.7539954   3.2085537 1 1 1
 12.1699977  18.0037195   4.2942102 1 1 1
  4.2438353  16.3682046   2.3945545 1 1 1
  4.9446862  15.0043993   1.5392909 1 1 1
  4.3459551  17.8046907   0.4761298 1 1 1
  4.2141337  16.2876818  13.3147834 1 1 1
  9.0954163  27.4279077   2.1366657 1 1 1
 10.5579050  27.6809980   1.3335306 1 1 1
 10.2024996  27.3632879   4.2492742 1 1 1
 11.6631936  27.8168966   3.4403029 1 1 1
  7.5495357  21.6487115   5.0611773 1 1 1
  7.7017016  19.9374929   4.6938118 1 1 1
  5.1645164  21.6031929   4.4737213 1 1 1
  5.3128052  19.9127841   4.9198207 1 1 1
  6.0747444  23.9150904   5.1184570 1 1 1
  6.8166268  25.1284084   6.1252289 1 1 1
  4.3853152  25.7222967   4.9084634 1 1 1
  4.7472281  26.2880153   6.5125827 1 1 1
  8.4441868  16.4478074  11.5304817 1 1 1
  9.6081936  15.5085209  10.6135544 1 1 1
 10.1326022  18.2084874  11.9986381 1 1 1
 10.3622964  17.9192976  10.2862888 1 1 1
  7.7871759  23.4920172  11.3587111 1 1 1
  8.6328495  24.4165835  10.1771683 1 1 1
  6.4577553  25.5729922  11.9917470 1 1 1
  6.6426368  25.7381998  10.2609164 1 1 1
  3.7859676  19.6051064   9.9882453 1 1 1
  4.3946449  18.0565105   9.4699332 1 1 1
  1.4495833  18.8753194   9.6178932 1 1 1
  2.1535715  17.3407866  10.0693493 1 1 1
  3.0860209  24.5268094   2.9865589 1 1 1
  2.9589260  23.9807178   4.5927606 1 1 1
  0.9021039  24.8886801   2.6338935 1 1 1
  0.5634536  24.4401971   4.2714545 1 1 1
  4.3055127  21.6979977   1.7522163 1 1 1
  5.6145751  22.0840077   0.6712726 1 1 1
  3.2057452  23.5136156   0.6760128 1 1 1
  4.6880167  23.9632814  13.5562048 1 1 1
  0.1008594  27.0348005   9.3910349 1 1 1
 13.5045969  25.4396784   8.7537931 1 1 1
  2.0540136  27.2004023   7.9518225 1 1 1
  1.5813362  25.6614008   7.2646031 1 1 1
 11.2166969  23.5431873  11.4290606 1 1 1
 12.8786028  24.1631865  11.2952527 1 1 1
 10.3321016  25.6656066  10.2082536 1 1 1
 11.6446027  25.6946964   9.4302032 1 1 1
  9.9953008  20.3390992   8.5157145 1 1 1
  8.4938767  21.2148173   8.8061682 1 1 1
  9.1255563  20.1604858   6.2256499 1 1 1
  7.4969277  20.4853808   6.7913777 1 1 1
  5.4528466  17.4111016   4.2723998 1 1 1
  5.4740131  15.6587016   4.0837645 1 1 1
  7.7503777  17.3435904   5.2648826 1 1 1
  7.8934194  16.2376070   3.9254610 1 1 1
 10.9319013  27.6940972   6.2843681 1 1 1
 10.1323967  27.6275060   7.8300706 1 1 1
  9.5395703  25.8443952   5.3953751 1 1 1
  8.3544655  26.8274040   6.1989349 1 1 1
  2.2765427  15.2998977   3.2640661 1 1 1
  3.1256961  16.7521116   3.6648870 1 1 1
  0.3086884  16.3262784   3.6915746 1 1 1
  1.0314593  17.7298194   4.4408687 1 1 1

O
0.0
75
  4.9412338  27.0365967   2.4174883 1 1 1
  7.2768783  27.3330152   2.5600779 1 1 1
  6.0580852  27.3918958   4.5721558 1 1 1
 11.1571019  20.9520887   4.9769497 1 1 1
 10.5463970  22.8647019   6.1526152 1 1 1
 11.4571045  20.9806966   7.2786319 1 1 1
  7.7749829  21.1989142  12.1255549 1 1 1
  5.6357690  20.4770131  11.5126991 1 1 1
  5.9818036  22.7295918  11.9504826 1 1 1
 11.7429961  20.2912148  10.2401198 1 1 1
 10.8053955  21.6281208  11.9695667 1 1 1
 12.1762997  19.8227983  12.4928793 1 1 1
  2.5899165  21.6976035  10.3710233 1 1 1
  0.6664365  22.1304024  11.6523980 1 1 1
  0.8583598  22.9334836   9.4406426 1 1 1
  0.5782496  20.9335133   5.1602283 1 1 1
  0.3462949  20.5747970   7.4726102 1 1 1
 13.1666042  19.0064866   5.9884618 1 1 1
  0.2337905  26.1310002   0.7370326 1 1 1
  2.3607840  25.5509120   0.6824792 1 1 1
  0.8186846  24.3220853  13.0190004 1 1 1
 10.2890973  15.0387901   8.1387316 1 1 1
 12.3247940  16.0720928   8.0153083 1 1 1
 11.8217026  14.8337155   9.9577080 1 1 1
  3.3776665  26.7576147  12.2405664 1 1 1
  3.5161187  27.9035090  10.2326259 1 1 1
  1.5095345  27.9383818  11.4651327 1 1 1
 12.5184983  18.5088050   2.2583765 1 1 1
 10.5918947  19.8238936   2.5121827 1 1 1
 12.3658940  20.6179936   1.2114910 1 1 1
  6.2461451  17.0144021  13.5248318 1 1 1
  6.4045582  16.5109814   2.1069230 1 1 1
  8.3195442  17.1900802   0.9276955 1 1 1
 11.5721023  25.7728973   3.5680006 1 1 1
 10.1459049  25.5212965   1.7194185 1 1 1
 11.7295016  23.8630003   2.2777620 1 1 1
  5.5487740  20.3026054   2.7815384 1 1 1
  7.7307045  21.1629024   2.9568299 1 1 1
  6.8824142  20.5511834   0.8576885 1 1 1
  3.6018807  24.4610068   6.5153775 1 1 1
  5.7105436  23.5766144   7.1701827 1 1 1
  3.7753364  22.8672867   8.2200959 1 1 1
 11.8268949  17.0314880  11.5613615 1 1 1
 10.2137062  15.7712933  12.7217104 1 1 1
 12.4774942  15.5185096  13.2409404 1 1 1
  7.9296696  27.0298062  11.3576151 1 1 1
  9.1529563  24.9922031  12.1649150 1 1 1
  9.6775430  27.3252170  12.7033250 1 1 1
  2.0251066  17.7140040   7.9161888 1 1 1
  3.7568414  19.2895868   7.8485656 1 1 1
  2.8952484  18.4408995   5.8500370 1 1 1
  0.5357522  22.8218995   2.8469696 1 1 1
  2.7970468  22.3310961   3.2174724 1 1 1
  1.4067160  20.6986040   2.2762413 1 1 1
  4.6025698  24.7911152   1.8592270 1 1 1
  5.8395154  23.0272808   2.7028867 1 1 1
  6.1162417  25.2059959   3.5815773 1 1 1
  2.8917549  25.4458994   8.9807747 1 1 1
  1.0712852  25.4207087  10.4411810 1 1 1
  3.0568947  24.2827001  11.0090597 1 1 1
 11.7967001  26.9137097  11.2818678 1 1 1
 11.9330973  25.2170798  12.9035779 1 1 1
 12.2415939  27.4533175  13.5667949 1 1 1
  8.0923845  18.4462881   7.1012032 1 1 1
  8.5712132  19.0715883   9.2988887 1 1 1
  7.8489766  16.8936179   8.8752847 1 1 1
  7.6028424  15.3080026   5.8407347 1 1 1
  5.3485759  16.2943847   6.1146525 1 1 1
  6.1373123  14.5945129   7.8344272 1 1 1
  9.0163262  25.0976976   7.3399120 1 1 1
 11.2567009  25.8103110   7.4252356 1 1 1
 10.6088005  23.8081064   8.4745734 1 1 1
  0.7402521  16.2001932   5.9260857 1 1 1
  2.8126237  15.3667080   5.4071571 1 1 1
  1.9984464  15.1445913   7.6198715 1 1 1

