ATOMIC_SPECIES
Au 196.966 ./Au_ONCV_PBE-1.0.upf
Mg 24.305 ./Mg_ONCV_PBE-1.0.upf

NUMERICAL_ORBITAL
./Au_gga_7au_100Ry_4s2p2d1f.orb
./Mg_gga_8au_100Ry_4s2p1d.orb

LATTICE_CONSTANT
1.889716

LATTICE_VECTORS
   12.72845    -0.00000     0.00000
   -6.36423    11.02316     0.00000
    0.00000     0.00000    10.31633

ATOMIC_POSITIONS
Direct

Au
0.0
1
  0.0000001  -0.0000001   0.0000000 1 1 1

Mg
0.0
63
  0.4166706   0.8333419   0.2501672 1 1 1
  0.1666581   0.5833285   0.7498328 1 1 1
  0.4166715   0.5833293   0.7498328 1 1 1
  0.4166706   0.8333419   0.7498328 1 1 1
  0.2494188   0.4988366   0.0000000 1 1 1
  0.5011634   0.7505821   0.0000000 1 1 1
  0.2494179   0.7505813   0.0000000 1 1 1
  0.9190933   0.8381864   0.2436332 1 1 1
  0.1618136   0.0809068   0.2436332 1 1 1
  0.9190933   0.0809066   0.2436332 1 1 1
  0.9190933   0.8381864   0.7563668 1 1 1
  0.1618136   0.0809068   0.7563668 1 1 1
  0.9190933   0.0809066   0.7563668 1 1 1
  0.4166715   0.5833293   0.2501672 1 1 1
  0.9171597   0.3320955   0.2487544 1 1 1
  0.7514907   0.7506872   0.5000000 1 1 1
  0.2493127   0.0008033   0.5000000 1 1 1
  0.7514910   0.0008041   0.5000000 1 1 1
  0.2493136   0.2485091   0.5000000 1 1 1
 -0.0008043   0.7506865   0.5000000 1 1 1
  0.4998654   0.2499324   0.5000000 1 1 1
  0.7500677   0.2499325   0.5000000 1 1 1
  0.7500674   0.5001346   0.5000000 1 1 1
 -0.0005105   0.4997443   0.5000000 1 1 1
  0.5002557   0.4997450   0.5000000 1 1 1
  0.5002550   0.0005105   0.5000000 1 1 1
  0.2499805   0.4999600   0.5000000 1 1 1
  0.5000400   0.7500204   0.5000000 1 1 1
 -0.0008031   0.2485092   0.5000000 1 1 1
  0.1666581   0.5833285   0.2501672 1 1 1
  0.4998971  -0.0002052   0.0000000 1 1 1
  0.4998980   0.5001030   0.0000000 1 1 1
  0.6679045   0.5850636   0.2487544 1 1 1
  0.4149362   0.0828404   0.2487544 1 1 1
  0.9171597   0.3320955   0.7512456 1 1 1
  0.6679045   0.5850636   0.7512456 1 1 1
  0.4149362   0.0828404   0.7512456 1 1 1
  0.6679035   0.0828403   0.2487545 1 1 1
  0.4149374   0.3320965   0.2487545 1 1 1
  0.9171595   0.5850627   0.2487545 1 1 1
  0.6679035   0.0828403   0.7512455 1 1 1
  0.4149374   0.3320965   0.7512455 1 1 1
  0.9171595   0.5850627   0.7512455 1 1 1
  0.0018721   0.2441848   0.0000000 1 1 1
  0.7558151   0.7576867   0.0000000 1 1 1
  0.2423130  -0.0018719   0.0000000 1 1 1
  0.7558150  -0.0018710   0.0000000 1 1 1
  0.2423146   0.2441852   0.0000000 1 1 1
  0.0018708   0.7576856   0.0000000 1 1 1
  0.1674505   0.3348995   0.2515613 1 1 1
  0.6651005   0.8325504   0.2515613 1 1 1
  0.1674494   0.8325497   0.2515613 1 1 1
  0.1674505   0.3348995   0.7484387 1 1 1
  0.6651005   0.8325504   0.7484387 1 1 1
  0.1674494   0.8325497   0.7484387 1 1 1
  0.4978317   0.2489156   0.0000000 1 1 1
  0.7510845   0.2489156   0.0000000 1 1 1
  0.7510842   0.5021683   0.0000000 1 1 1
  0.6666669   0.3333331   0.2491797 1 1 1
  0.6666669   0.3333331   0.7508203 1 1 1
  0.0002052   0.5001020   0.0000000 1 1 1
  0.2499796   0.7500196   0.5000000 1 1 1
  0.0000001  -0.0000001   0.5000000 1 1 1

