ATOMIC_SPECIES
Na 22.989 Na_ONCV_PBE-1.0.upf upf201
Fe 55.845 Fe_ONCV_PBE-1.0.upf upf201
O 15.999 O_ONCV_PBE-1.0.upf upf201

NUMERICAL_ORBITAL
Na_gga_8au_100Ry_4s2p1d.orb
Fe_gga_8au_100Ry_4s2p2d1f.orb
O_gga_7au_100Ry_2s2p1d.orb

LATTICE_CONSTANT
1.88972612463

LATTICE_VECTORS
    5.8914144284    -0.0292445779    -0.0132392727 #latvec1
   -2.8471986516     5.3413091214     0.0044796733 #latvec2
    0.1626732313    -0.1922239406    16.9033433689 #latvec3

ATOMIC_POSITIONS
Direct

Na #label
0 #magnetism
6 #number of atoms
    0.0000772456     0.5000754482     0.0000061907 m  1  1  1 mag         0.0000000000
    0.5000934681     0.0000573662     0.0000073969 m  1  1  1 mag         0.0000000000
    0.3333366096     0.1667986322     0.3333198796 m  1  1  1 mag         0.0000000000
    0.8333515735     0.6667822658     0.3333209605 m  1  1  1 mag         0.0000000000
    0.1665771666     0.3331831532     0.6666682027 m  1  1  1 mag         0.0000000000
    0.6665745721     0.8331872293     0.6666678287 m  1  1  1 mag         0.0000000000

Fe #label
5 #magnetism
12 #number of atoms
    0.1668076803     0.3335384715     0.1666657832 m  1  1  1 mag         5.0000000000
    0.1668081720     0.8335352006     0.1666686102 m  1  1  1 mag         5.0000000000
    0.6668079154     0.3335341724     0.1666682001 m  1  1  1 mag         5.0000000000
    0.6668069182     0.8335381401     0.1666695543 m  1  1  1 mag         5.0000000000
    0.4996195106     0.4997930200     0.4999837850 m  1  1  1 mag         5.0000000000
    0.4996014857     0.9997650129     0.4999950695 m  1  1  1 mag         5.0000000000
    0.9996014229     0.4997650345     0.4999970763 m  1  1  1 mag         5.0000000000
    0.9996195602     0.9997923110     0.4999834967 m  1  1  1 mag         5.0000000000
    0.3335851375     0.1666914819     0.8333388768 m  1  1  1 mag         5.0000000000
    0.3335865217     0.6666772874     0.8333616517 m  1  1  1 mag         5.0000000000
    0.8335862220     0.1666773520     0.8333619138 m  1  1  1 mag         5.0000000000
    0.8335854944     0.6666918277     0.8333365917 m  1  1  1 mag         5.0000000000

O #label
0 #magnetism
24 #number of atoms
    0.0114430898     0.9928468214     0.2282790199 m  1  1  1 mag         0.0000000000
    0.9702458593     0.4794882230     0.2285852912 m  1  1  1 mag         0.0000000000
    0.4702438187     0.9794898184     0.2285863133 m  1  1  1 mag         0.0000000000
    0.5114425689     0.4928459178     0.2282788883 m  1  1  1 mag         0.0000000000
    0.3633527017     0.1875464802     0.1047426358 m  1  1  1 mag         0.0000000000
    0.3221534829     0.6741835248     0.1050504113 m  1  1  1 mag         0.0000000000
    0.8221530584     0.1741826585     0.1050502994 m  1  1  1 mag         0.0000000000
    0.8633505893     0.6875482235     0.1047436769 m  1  1  1 mag         0.0000000000
    0.3030620963     0.1457422948     0.5619082201 m  1  1  1 mag         0.0000000000
    0.3442683190     0.6591145521     0.5616065376 m  1  1  1 mag         0.0000000000
    0.8442674174     0.1591138348     0.5616064123 m  1  1  1 mag         0.0000000000
    0.8030615627     0.6457426732     0.5619086899 m  1  1  1 mag         0.0000000000
    0.1961424025     0.3538065356     0.4380591798 m  1  1  1 mag         0.0000000000
    0.1549923680     0.8404621221     0.4383697564 m  1  1  1 mag         0.0000000000
    0.6549920973     0.3404622714     0.4383696952 m  1  1  1 mag         0.0000000000
    0.6961439409     0.8538050187     0.4380585055 m  1  1  1 mag         0.0000000000
    0.1370476387     0.3126675742     0.8952736025 m  1  1  1 mag         0.0000000000
    0.1782218132     0.8260322692     0.8949607849 m  1  1  1 mag         0.0000000000
    0.6782215273     0.3260325888     0.8949608163 m  1  1  1 mag         0.0000000000
    0.6370492060     0.8126657265     0.8952727792 m  1  1  1 mag         0.0000000000
    0.9889231269     0.0073456408     0.7717248124 m  1  1  1 mag         0.0000000000
    0.0301368202     0.5207234328     0.7714225249 m  1  1  1 mag         0.0000000000
    0.5301363572     0.0207240051     0.7714231318 m  1  1  1 mag         0.0000000000
    0.4889221526     0.5073447043     0.7717245749 m  1  1  1 mag         0.0000000000
