ATOMIC_SPECIES
Li 6.941000 Li.upf
Ca 40.078000 Ca.upf
Al 26.981500 Al.PD04.PBE.upf

LATTICE_CONSTANT
1.889726

LATTICE_VECTORS
    5.24378400000     0.00000000000     0.00000000000
    0.00000000000     6.93379799800     0.00000000000
    0.00000000000     3.46689899900     6.00484599900

ATOMIC_POSITIONS
Cartesian

Li
0.000000
2
    1.31095000000     0.00000000000     0.00000000000 1 1 1 
    3.93284000000     0.00000000000     0.00000000000 1 1 1 

Ca
0.000000
2
    1.31095000000     6.93380000000     4.00323000000 1 1 1 
    3.93284000000     3.46690000000     2.00162000000 1 1 1 

Al
0.000000
6
    1.31095000000     2.16584000000     1.10573000000 1 1 1 
    1.31095000000     4.89329000000     1.32281000000 1 1 1 
    1.31095000000     3.34157000000     3.57631000000 1 1 1 
    3.93284000000     8.23486000000     4.89911000000 1 1 1 
    3.93284000000     5.50741000000     4.68204000000 1 1 1 
    3.93284000000     7.05913000000     2.42854000000 1 1 1 
