ATOMIC_SPECIES
Tb 158.925300 Tb.upf
Cd 112.411000 Cd_ONCV_PBE-1.0.upf
Rh 102.905500 Rh_ONCV_PBE-1.0.upf

LATTICE_CONSTANT
1.889726

LATTICE_VECTORS
    9.67207384000     0.00000000000     0.00000000000
    4.83603692000     8.37626165300     0.00000000000
    4.83603692000     2.79208721800     7.89721522100

ATOMIC_POSITIONS
Cartesian

Tb
0.000000
16
    4.83604000000     2.79209000000     5.54345000000 1 1 1 
    9.67207000000     3.50598000000     2.47910000000 1 1 1 
    9.67207000000     7.66237000000     5.41811000000 1 1 1 
   16.34134000000     7.31785000000     7.41973000000 1 1 1 
    7.87230000000     6.62327000000     2.47910000000 1 1 1 
   14.50811000000     6.25944000000     4.42609000000 1 1 1 
   12.67489000000     9.43467000000     4.42609000000 1 1 1 
    7.75023000000     1.10958000000     0.78459000000 1 1 1 
   14.50811000000    10.49309000000     7.41973000000 1 1 1 
    1.92184000000     1.10958000000     0.78459000000 1 1 1 
   11.47184000000     4.54508000000     5.41811000000 1 1 1 
    4.83604000000     6.15711000000     0.78459000000 1 1 1 
   16.34134000000     9.43467000000     4.42609000000 1 1 1 
    7.87230000000     4.54508000000     5.41811000000 1 1 1 
   11.47184000000     6.62327000000     2.47910000000 1 1 1 
   12.67489000000     7.31785000000     7.41973000000 1 1 1 

Cd
0.000000
4
    4.83604000000     2.79209000000     0.06144000000 1 1 1 
    6.39788000000     3.69382000000     2.61192000000 1 1 1 
    4.83604000000     0.98862000000     2.61192000000 1 1 1 
    3.27419000000     3.69382000000     2.61192000000 1 1 1 

Rh
0.000000
4
   14.50811000000     5.19572000000     7.04740000000 1 1 1 
   17.26254000000     9.96653000000     7.04740000000 1 1 1 
   11.75368000000     9.96653000000     7.04740000000 1 1 1 
   14.50811000000     8.37626000000     2.54943000000 1 1 1 
