ATOMIC_SPECIES
I 126.904 ./I_ONCV_PBE-1.0.upf
Pb 207.200 ./Pb_ONCV_PBE-1.0.upf
C 12.011 ./C_ONCV_PBE-1.0.upf
N 14.007 ./N_ONCV_PBE-1.0.upf
H 1.008 ./H_ONCV_PBE-1.0.upf

NUMERICAL_ORBITAL
./I_gga_7au_100Ry_2s2p2d1f.orb
./Pb_gga_7au_100Ry_2s2p2d1f.orb
./C_gga_7au_100Ry_2s2p1d.orb
./N_gga_7au_100Ry_2s2p1d.orb
./H_gga_6au_100Ry_2s1p.orb

LATTICE_CONSTANT
1.889716

LATTICE_VECTORS
    8.98974    -0.00073     0.00323
   -0.04480     8.66964    -0.00768
   -0.10730     0.08684    12.72086

ATOMIC_POSITIONS
Direct

I
0.0
12
  0.9986047   0.9501341   0.2440169 1 1 1
  0.0810403   0.9740583   0.7446410 1 1 1
  0.5551191   0.4655145   0.2453342 1 1 1
  0.4838326   0.4545850   0.7447120 1 1 1
  0.3396735   0.7749638   0.0141119 1 1 1
  0.3253702   0.7661230   0.4757601 1 1 1
  0.7351268   0.1635923   0.9791629 1 1 1
  0.7219419   0.1548979   0.5161415 1 1 1
  0.2296541   0.2705660   0.0290482 1 1 1
  0.2159902   0.2683804   0.4640039 1 1 1
  0.8367509   0.6584318   0.9800232 1 1 1
  0.8235011   0.6551226   0.5076574 1 1 1

Pb
0.0
4
  0.0393311   0.9673841   0.9928145 1 1 1
  0.0234005   0.9584182   0.4984397 1 1 1
  0.5255992   0.4683078   0.9947335 1 1 1
  0.5202519   0.4547132   0.4946013 1 1 1

C
0.0
4
  0.9917148   0.5097893   0.2366337 1 1 1
  0.0254777   0.4202782   0.7251148 1 1 1
  0.5363821   0.9974528   0.2303433 1 1 1
  0.5451727   0.9112036   0.7234146 1 1 1

N
0.0
8
  0.1326804   0.5482167   0.2277132 1 1 1
  0.8871657   0.3746397   0.7369510 1 1 1
  0.9409818   0.3757352   0.2688952 1 1 1
  0.0975632   0.5114304   0.7900387 1 1 1
  0.6088454   0.9018408   0.2922974 1 1 1
  0.4773120   0.0067154   0.7863200 1 1 1
  0.4009993   0.0472555   0.2469005 1 1 1
  0.6791093   0.8553929   0.7393951 1 1 1

H
0.0
20
  0.1603208   0.6533249   0.1968876 1 1 1
  0.8381560   0.3067483   0.6808421 1 1 1
  0.2183913   0.4748558   0.2441835 1 1 1
  0.8249067   0.4056384   0.7998420 1 1 1
  0.8282229   0.3615676   0.2756656 1 1 1
  0.2080016   0.5327812   0.7775930 1 1 1
  0.0092002   0.2892443   0.2943464 1 1 1
  0.0487294   0.5537763   0.8563252 1 1 1
  0.9095757   0.5964205   0.2141965 1 1 1
  0.0845461   0.3794131   0.6558251 1 1 1
  0.7178571   0.8778845   0.2775109 1 1 1
  0.3691362   0.0356174   0.7711696 1 1 1
  0.5624450   0.8580502   0.3593562 1 1 1
  0.5273429   0.0473447   0.8534094 1 1 1
  0.3504645   0.1177221   0.1926651 1 1 1
  0.7253092   0.7859544   0.6837622 1 1 1
  0.3415934   0.0142079   0.3111752 1 1 1
  0.7409354   0.8797816   0.8046956 1 1 1
  0.5929278   0.0393616   0.1598219 1 1 1
  0.4855554   0.8746417   0.6523873 1 1 1

