ATOMIC_SPECIES
In 114.818 In.pbe-n-nc.UPF
As 74.922 As_ONCV_PBE-1.0.upf

NUMERICAL_ORBITAL
In_gga_9au_100Ry_2s2p2d1f.orb
As_gga_7au_100Ry_2s2p1d.orb

LATTICE_CONSTANT
1.889716

LATTICE_VECTORS
    0.00000     3.05356     3.05356
    3.05356     0.00000     3.05356
    3.05356     3.05356     0.00000

ATOMIC_POSITIONS
Direct

In
0.0
1
  0.7500000   0.7500000   0.7500000 1 1 1

As
0.0
1
  0.0000000   0.0000000   0.0000000 1 1 1

