ATOMIC_SPECIES
La 138.905500 La_ONCV_PBE-1.0.upf
Cu 63.546000 Cu.upf

LATTICE_CONSTANT
1.889726

LATTICE_VECTORS
    8.18624450000     0.00000000000     0.00000000000
    4.09312225000     7.08949569900     0.00000000000
    4.09312225000     2.36316523300     6.68404064500

ATOMIC_POSITIONS
Cartesian

La
0.000000
2
   12.27937000000     7.08950000000     5.01303000000 1 1 1 
    4.09312000000     2.36317000000     1.67101000000 1 1 1 

Cu
0.000000
26
    8.18624000000     4.72633000000     3.34202000000 1 1 1 
    0.00000000000     0.00000000000     0.00000000000 1 1 1 
    8.69892000000     6.13030000000     1.35651000000 1 1 1 
    7.67356000000     3.32236000000     5.32753000000 1 1 1 
   10.61798000000     5.02233000000     2.92342000000 1 1 1 
    5.75450000000     4.43033000000     3.76062000000 1 1 1 
   11.76669000000     3.76713000000     4.69853000000 1 1 1 
    4.60580000000     5.68553000000     1.98551000000 1 1 1 
    6.52486000000     6.79350000000     0.41860000000 1 1 1 
    9.84763000000     2.65916000000     6.26544000000 1 1 1 
    9.65845000000     4.98432000000     5.32753000000 1 1 1 
    6.71403000000     4.46834000000     1.35651000000 1 1 1 
    9.65845000000     2.76838000000     3.76062000000 1 1 1 
    6.71403000000     6.68428000000     2.92342000000 1 1 1 
    9.14577000000     1.14598000000     1.98551000000 1 1 1 
    7.22671000000     8.30668000000     4.69853000000 1 1 1 
    9.14577000000     7.19871000000     6.26544000000 1 1 1 
    7.22671000000     2.25395000000     0.41860000000 1 1 1 
    7.22671000000     2.47238000000     2.92342000000 1 1 1 
    9.14577000000     6.98028000000     3.76062000000 1 1 1 
    9.14577000000     3.58035000000     1.35651000000 1 1 1 
    7.22671000000     5.87231000000     5.32753000000 1 1 1 
   10.80716000000     5.13154000000     0.41860000000 1 1 1 
    5.56533000000     4.32112000000     6.26544000000 1 1 1 
    5.56533000000     2.10518000000     4.69853000000 1 1 1 
   10.80716000000     7.34748000000     1.98551000000 1 1 1 
