ATOMIC_SPECIES
Th 232.038100 Th-5spdf_r.upf
Te 127.600000 Te.PD04.PBE.UPF

LATTICE_CONSTANT
1.000000

LATTICE_VECTORS
    7.27826482351     0.00000000000     0.00000000000
    0.00000000000     7.27826482351     0.00000000000
    0.00000000000     0.00000000000     7.27826482351

ATOMIC_POSITIONS
Cartesian

Th
0.000000
1
    3.63913241175     3.63913241175     3.63913241175 

Te
0.000000
1
    0.00000000000     0.00000000000     0.00000000000 
