Co2
1.0
   2.4719998400000001    0.0000000100000000   -0.0000000000000000
  -1.2359994100000000    2.1408151000000002   -0.0000000000000000
   0.0000000000000000   -0.0000000000000000    4.0211440800000000
Co
2
direct
   0.3333330000000000    0.6666670000000000    0.2500000000000000 Co
   0.6666670000000000    0.3333330000000000    0.7500000000000000 Co
