ATOMIC_SPECIES
Nb 92.906400 Nb.upf
Si 28.085500 Si.upf
Ni 58.693400 Ni_ONCV_PBE-1.0.upf

LATTICE_CONSTANT
1.889726

LATTICE_VECTORS
    5.02342600000     0.00000000000     0.00000000000
    2.51171300200     8.94449348900     0.00000000000
    2.51171300000     0.00000000000     8.94449348900

ATOMIC_POSITIONS
Cartesian

Nb
0.000000
8
    5.02342000000     2.40681000000     0.00000000000 1 1 1 
    5.02343000000     6.53768000000     8.94449000000 1 1 1 
    2.51171000000     0.00000000000     6.53769000000 1 1 1 
    5.02343000000     0.00000000000     2.40680000000 1 1 1 
    5.02343000000     7.23217000000     1.71232000000 1 1 1 
    5.02343000000     1.71232000000     7.23217000000 1 1 1 
    2.51171000000     1.71232000000     1.71232000000 1 1 1 
    7.53514000000     7.23217000000     7.23217000000 1 1 1 

Si
0.000000
14
    5.02343000000     5.30394000000     3.64055000000 1 1 1 
    5.02343000000     3.64055000000     5.30394000000 1 1 1 
    2.51171000000     3.64055000000     3.64055000000 1 1 1 
    7.53514000000     5.30394000000     5.30394000000 1 1 1 
    3.77013000000     0.00000000000     0.00000000000 1 1 1 
    1.25330000000     0.00000000000     0.00000000000 1 1 1 
    5.02343000000     5.22892000000     0.00000000000 1 1 1 
    2.51171000000     3.71558000000     0.00000000000 1 1 1 
    2.51171000000     0.00000000000     3.71558000000 1 1 1 
    5.02343000000     0.00000000000     5.22892000000 1 1 1 
    2.51171000000     2.61074000000     6.33376000000 1 1 1 
    7.53514000000     6.33376000000     2.61074000000 1 1 1 
    5.02343000000     6.33376000000     6.33376000000 1 1 1 
    5.02343000000     2.61074000000     2.61074000000 1 1 1 

Ni
0.000000
8
    3.76757000000     7.12161000000     4.47225000000 1 1 1 
    3.76757000000     1.82289000000     4.47225000000 1 1 1 
    3.76757000000     4.47225000000     1.82289000000 1 1 1 
    3.76757000000     4.47225000000     7.12161000000 1 1 1 
    6.27928000000     4.47225000000     1.82289000000 1 1 1 
    6.27928000000     4.47225000000     7.12161000000 1 1 1 
    6.27928000000     7.12161000000     4.47225000000 1 1 1 
    6.27928000000     1.82289000000     4.47225000000 1 1 1 
