ATOMIC_SPECIES
Tm 168.934200 Tm.upf
Tl 204.383300 Tl.PD03.PBE.UPF

LATTICE_CONSTANT
1.000000

LATTICE_VECTORS
    8.99305579067     0.00000000000     0.00000000000
    0.00000000000     8.99305579067     0.00000000000
    0.00000000000     0.00000000000     8.99305579067

ATOMIC_POSITIONS
Cartesian

Tm
0.000000
1
    0.00000000000     0.00000000000     0.00000000000 

Tl
0.000000
3
    4.49652789534     4.49652789534     0.00000000000 
    4.49652789534     0.00000000000     4.49652789534 
    0.00000000000     4.49652789534     4.49652789534 
