ATOMIC_SPECIES
Li 6.941 Li_ONCV_PBE-1.0.upf upf201
Ni 58.693 Ni_ONCV_PBE-1.0.upf upf201
O 15.999 O_ONCV_PBE-1.0.upf upf201

NUMERICAL_ORBITAL
Li_gga_7au_100Ry_4s1p.orb
Ni_gga_8au_100Ry_4s2p2d1f.orb
O_gga_7au_100Ry_2s2p1d.orb

LATTICE_CONSTANT
1.88972612463

LATTICE_VECTORS
    5.8437893099     0.0003608103     0.0007611082 #latvec1
   -2.9249315842     5.0573785696    -0.0023993591 #latvec2
   -0.0090922058     0.0136223557    14.4130753031 #latvec3

ATOMIC_POSITIONS
Direct

Li #label
0 #magnetism
12 #number of atoms
    0.0000619024     0.9999876057     0.0001959138 m  1  1  1 mag         0.0000000000
    0.0000624439     0.4999874810     0.0001956966 m  1  1  1 mag         0.0000000000
    0.5000624411     0.9999876360     0.0001956367 m  1  1  1 mag         0.0000000000
    0.5000620396     0.4999876452     0.0001959664 m  1  1  1 mag         0.0000000000
    0.3333438574     0.1666794033     0.3330710357 m  1  1  1 mag         0.0000000000
    0.3333438877     0.6666793740     0.3330709942 m  1  1  1 mag         0.0000000000
    0.8333439158     0.1666794674     0.3330709857 m  1  1  1 mag         0.0000000000
    0.8333439290     0.6666793898     0.3330710654 m  1  1  1 mag         0.0000000000
    0.1666515739     0.3333389807     0.6667301851 m  1  1  1 mag         0.0000000000
    0.1666520657     0.8333389648     0.6667299288 m  1  1  1 mag         0.0000000000
    0.6666521552     0.3333389780     0.6667299769 m  1  1  1 mag         0.0000000000
    0.6666517262     0.8333391527     0.6667301564 m  1  1  1 mag         0.0000000000

Ni #label
1 #magnetism
12 #number of atoms
    0.1666973212     0.3333362287     0.1666639252 m  1  1  1 mag         1.0000000000
    0.1666973995     0.8333364031     0.1666638809 m  1  1  1 mag         1.0000000000
    0.6666972891     0.3333362121     0.1666638820 m  1  1  1 mag         1.0000000000
    0.6666974028     0.8333363950     0.1666639356 m  1  1  1 mag         1.0000000000
    0.9999922464     0.0000165629     0.4997120433 m  1  1  1 mag         1.0000000000
    0.9999922908     0.5000167259     0.4997120041 m  1  1  1 mag         1.0000000000
    0.4999922214     0.0000165443     0.4997119879 m  1  1  1 mag         1.0000000000
    0.4999923141     0.5000167264     0.4997120650 m  1  1  1 mag         1.0000000000
    0.3332918035     0.1666452228     0.8336251664 m  1  1  1 mag         1.0000000000
    0.3332917296     0.6666450932     0.8336251488 m  1  1  1 mag         1.0000000000
    0.8332918212     0.1666452377     0.8336251540 m  1  1  1 mag         1.0000000000
    0.8332917131     0.6666450771     0.8336251673 m  1  1  1 mag         1.0000000000

O #label
0 #magnetism
24 #number of atoms
    0.9999945733     0.0003689059     0.2425355678 m  1  1  1 mag         0.0000000000
    0.9999906041     0.5003638710     0.2425358556 m  1  1  1 mag         0.0000000000
    0.4999938072     0.0003663812     0.2425353733 m  1  1  1 mag         0.0000000000
    0.4999906628     0.5003651696     0.2425359633 m  1  1  1 mag         0.0000000000
    0.3334066768     0.1663092843     0.0907994590 m  1  1  1 mag         0.0000000000
    0.3334028997     0.6663040936     0.0907998385 m  1  1  1 mag         0.0000000000
    0.8334068058     0.1663078712     0.0907995081 m  1  1  1 mag         0.0000000000
    0.8334034354     0.6663066632     0.0907998959 m  1  1  1 mag         0.0000000000
    0.3331723722     0.1671488692     0.5756759514 m  1  1  1 mag         0.0000000000
    0.3331749297     0.6671528040     0.5756755410 m  1  1  1 mag         0.0000000000
    0.8331722080     0.1671495609     0.5756759026 m  1  1  1 mag         0.0000000000
    0.8331748156     0.6671511989     0.5756755177 m  1  1  1 mag         0.0000000000
    0.1668109108     0.3328798247     0.4237742948 m  1  1  1 mag         0.0000000000
    0.1668133737     0.8328815395     0.4237736889 m  1  1  1 mag         0.0000000000
    0.6668105215     0.3328782352     0.4237740867 m  1  1  1 mag         0.0000000000
    0.6668134551     0.8328821218     0.4237738246 m  1  1  1 mag         0.0000000000
    0.1666466357     0.3337453644     0.9095703163 m  1  1  1 mag         0.0000000000
    0.1666448224     0.8337407789     0.9095706525 m  1  1  1 mag         0.0000000000
    0.6666473103     0.3337431214     0.9095702718 m  1  1  1 mag         0.0000000000
    0.6666450363     0.8337432706     0.9095708391 m  1  1  1 mag         0.0000000000
    0.9999303964     0.9995485199     0.7576466939 m  1  1  1 mag         0.0000000000
    0.9999325545     0.4995485084     0.7576462117 m  1  1  1 mag         0.0000000000
    0.4999310314     0.9995464108     0.7576466226 m  1  1  1 mag         0.0000000000
    0.4999328129     0.4995508715     0.7576463932 m  1  1  1 mag         0.0000000000
