La4
1.0
   3.7963105800000001   -0.0000000400000000    0.0000000000000000
  -1.8981563600000000    3.2877029000000002    0.0000000000000000
   0.0000000000000000    0.0000000000000000   12.0412575299999993
La
4
direct
  -0.0000000000000000    0.0000000000000000    0.0000000000000000 La
  -0.0000000000000000    0.0000000000000000    0.5000000000000000 La
   0.3333330000000000    0.6666670000000000    0.2500000000000000 La
   0.6666670000000000    0.3333330000000000    0.7500000000000000 La
