ATOMIC_SPECIES
Ce 140.116000 Ce-sp.PD04.PBE.UPF
N 14.006700 N_ONCV_PBE-1.0.upf

LATTICE_CONSTANT
1.000000

LATTICE_VECTORS
    6.74966161004     0.00000000000     0.00000000000
    3.37483080502     5.84537842124     0.00000000000
    3.37483080502     1.94845947375     5.51107562702

ATOMIC_POSITIONS
Cartesian

Ce
0.000000
1
    0.00000000000     0.00000000000     0.00000000000 

N
0.000000
1
    6.74966161004     3.89691894750     2.75553781351 
