ATOMIC_SPECIES
Mn 54.938 Mn_ONCV_PBE-1.0.upf upf201
O 15.999 O_ONCV_PBE-1.0.upf upf201

NUMERICAL_ORBITAL
Mn_gga_9au_100Ry_4s2p2d1f.orb
O_gga_7au_100Ry_2s2p1d.orb

LATTICE_CONSTANT
1.88972612463

LATTICE_VECTORS
    5.9227231857    -0.0000086923     0.0000064919 #latvec1
   -2.9613536137     5.1292338485    -0.0000098090 #latvec2
   -0.0001191944     0.0001359786    14.2474514854 #latvec3

ATOMIC_POSITIONS
Direct

Mn #label
3 #magnetism
12 #number of atoms
    0.1666149709     0.3333146518     0.1660098279 m  1  1  1 mag         3.0000000000
    0.1666226781     0.8333008493     0.1660110969 m  1  1  1 mag         3.0000000000
    0.6667208576     0.3333529878     0.1660047682 m  1  1  1 mag         3.0000000000
    0.6667090869     0.8333586634     0.1660030912 m  1  1  1 mag         3.0000000000
    0.0000386153     0.9999897672     0.5000007552 m  1  1  1 mag         3.0000000000
    0.0000193471     0.5000340882     0.4999980709 m  1  1  1 mag         3.0000000000
    0.4999519907     0.9999878832     0.5000010858 m  1  1  1 mag         3.0000000000
    0.4999879592     0.4999769628     0.5000060839 m  1  1  1 mag         3.0000000000
    0.3333417782     0.1667072546     0.8339882235 m  1  1  1 mag         3.0000000000
    0.3333592479     0.6666517011     0.8339906426 m  1  1  1 mag         3.0000000000
    0.8333380888     0.1666601646     0.8339948372 m  1  1  1 mag         3.0000000000
    0.8332952301     0.6666649390     0.8339890077 m  1  1  1 mag         3.0000000000

O #label
0 #magnetism
24 #number of atoms
    0.0000040244     0.9999979202     0.2333215964 m  1  1  1 mag         0.0000000000
    0.0000033551     0.4999980718     0.2333198687 m  1  1  1 mag         0.0000000000
    0.4999975825     0.9999954434     0.2333270756 m  1  1  1 mag         0.0000000000
    0.4999979065     0.4999946013     0.2333282713 m  1  1  1 mag         0.0000000000
    0.3333357094     0.1666684436     0.0986775387 m  1  1  1 mag         0.0000000000
    0.3333363651     0.6666683551     0.0986791206 m  1  1  1 mag         0.0000000000
    0.8333302954     0.1666650362     0.0986852112 m  1  1  1 mag         0.0000000000
    0.8333300179     0.6666658812     0.0986841099 m  1  1  1 mag         0.0000000000
    0.3333344668     0.1666640865     0.5670748099 m  1  1  1 mag         0.0000000000
    0.3333356024     0.6666615341     0.5670776956 m  1  1  1 mag         0.0000000000
    0.8333325321     0.1666607083     0.5670833788 m  1  1  1 mag         0.0000000000
    0.8333304516     0.6666613702     0.5670779702 m  1  1  1 mag         0.0000000000
    0.1666629051     0.3333317487     0.4329251467 m  1  1  1 mag         0.0000000000
    0.1666651273     0.8333311204     0.4329304973 m  1  1  1 mag         0.0000000000
    0.6666678844     0.3333317022     0.4329248030 m  1  1  1 mag         0.0000000000
    0.6666667241     0.8333344548     0.4329219199 m  1  1  1 mag         0.0000000000
    0.1666652453     0.3333357235     0.9013148896 m  1  1  1 mag         0.0000000000
    0.1666678974     0.8333354893     0.9013205273 m  1  1  1 mag         0.0000000000
    0.6666687667     0.3333347150     0.9013165508 m  1  1  1 mag         0.0000000000
    0.6666677274     0.8333381743     0.9013142371 m  1  1  1 mag         0.0000000000
    0.0000012518     0.0000051696     0.7666743588 m  1  1  1 mag         0.0000000000
    0.0000002108     0.5000085655     0.7666718158 m  1  1  1 mag         0.0000000000
    0.4999975334     0.0000060494     0.7666724899 m  1  1  1 mag         0.0000000000
    0.5000001440     0.5000057923     0.7666786901 m  1  1  1 mag         0.0000000000
