LATTICE_CONSTANT
1.8897261246257702

LATTICE_VECTORS
5.847806797991089 -1.317849387959536e-20 -9.145942152667561e-23 
-2.9238880883119593 5.064332397076797 -1.208168705968366e-21 
-0.00013083806714778485 0.00014996728149877948 13.22864263209984 

ATOMIC_POSITIONS
Cartesian    # Cartesian(Unit is LATTICE_CONSTANT)
Mn
3 
12
-0.000021089296 1.688128321745 2.195484828020 1 1 1
-1.461968033173 4.220292004976 2.195496361698 1 1 1
2.923906111549 1.688133798087 2.195477831993 1 1 1
1.461962752754 4.220306633716 2.195480692674 1 1 1
5.847753487028 0.000068979082 6.614385086178 1 1 1
4.385796768570 2.532244320185 6.614380196195 1 1 1
2.923824852136 0.000068920527 6.614386232763 1 1 1
1.461893550783 2.532229693999 6.614390237068 1 1 1
1.461824692379 0.844193536835 11.033087851016 1 1 1
-0.000090520816 3.376334885127 11.033119976544 1 1 1
4.385760978269 0.844188453887 11.033104888680 1 1 1
2.923779837150 3.376348474112 11.033079501465 1 1 1
O
0 
24
-2.923883681612 5.064361947149 3.147014397774 1 1 1
-1.461979568327 2.532155173730 3.146997410441 1 1 1
-0.000044834472 5.064362776088 3.147025502761 1 1 1
1.461945056941 2.532201793590 3.146993303082 1 1 1
1.461927136314 0.844077528251 1.244150180745 1 1 1
0.000010193963 3.376270526018 1.244136023093 1 1 1
4.385843048382 0.844058277184 1.244150775136 1 1 1
2.923881898441 3.376243060116 1.244170926850 1 1 1
1.461886111630 0.844122752083 7.566134559151 1 1 1
-0.000059718922 3.376284803304 7.566126920524 1 1 1
4.385800415715 0.844131748360 7.566126257488 1 1 1
2.923857865232 3.376290911712 7.566122585733 1 1 1
-0.000047660463 1.688180099595 5.662580009548 1 1 1
-1.461999771911 4.220353052788 5.662585378225 1 1 1
2.923837638965 1.688178658910 5.662588223875 1 1 1
1.461902030435 4.220344183970 5.662593851413 1 1 1
-0.000088270799 1.688238801495 11.984500928485 1 1 1
-1.462071408512 4.220413324252 11.984495312532 1 1 1
2.923806945451 1.688284439344 11.984491289295 1 1 1
1.461853417826 4.220398611556 11.984483175997 1 1 1
5.847666432860 0.000158245495 10.081530916215 1 1 1
4.385781375908 2.532287863433 10.081572510069 1 1 1
2.923819462087 0.000113921094 10.081592290695 1 1 1
1.461806400400 2.532299994090 10.081531811006 1 1 1

ATOMIC_SPECIES
Mn 54.938 Mn_ONCV_PBE-1.0.upf
O 15.999 O_ONCV_PBE-1.0.upf

NUMERICAL_ORBITAL
Mn_gga_9au_100Ry_4s2p2d1f.orb
O_gga_7au_100Ry_2s2p1d.orb
