ATOMIC_SPECIES
Sc 44.955900 Sc_ONCV_PBE-1.0.upf
Os 190.230000 Os.upf

LATTICE_CONSTANT
1.889726

LATTICE_VECTORS
    5.20607399600     0.00000000000     0.00000000000
   -2.60303699800     4.50859299700     0.00000000000
    0.00000000000     0.00000000000     8.61270600000

ATOMIC_POSITIONS
Cartesian

Sc
0.000000
4
    2.60304000000     1.50286000000     4.88052000000 1 1 1 
    0.00000000000     3.00573000000     3.73219000000 1 1 1 
    0.00000000000     3.00573000000     0.57417000000 1 1 1 
    2.60304000000     1.50286000000     8.03854000000 1 1 1 

Os
0.000000
8
    3.85611000000     0.77940000000     2.15318000000 1 1 1 
    2.60304000000     2.94978000000     2.15318000000 1 1 1 
    1.25307000000     3.72919000000     6.45953000000 1 1 1 
   -1.25307000000     3.72919000000     6.45953000000 1 1 1 
    1.34997000000     0.77940000000     2.15318000000 1 1 1 
    0.00000000000     0.00000000000     0.00000000000 1 1 1 
    0.00000000000     1.55881000000     6.45953000000 1 1 1 
    0.00000000000     0.00000000000     4.30635000000 1 1 1 
