Re2
1.0
   2.7653358199999998   -0.0000000000000000   -0.0000000000000000
  -1.3826679099999999    2.3948523599999998    0.0000000000000000
  -0.0000000000000000    0.0000000000000000    4.4735766300000002
Re
2
direct
   0.3333330000000000    0.6666670000000000    0.2500000000000000 Re
   0.6666670000000000    0.3333330000000000    0.7500000000000000 Re
