ATOMIC_SPECIES
Cs 132.905 Cs_ONCV_PBE-1.0.upf
Pb 207.200 Pb_ONCV_PBE-1.0.upf
I 126.904 I_ONCV_PBE-1.0.upf
C 12.011 C_ONCV_PBE-1.0.upf
N 14.007 N_ONCV_PBE-1.0.upf
H 1.008 H_ONCV_PBE-1.0.upf

NUMERICAL_ORBITAL
Cs_gga_10au_100Ry_4s2p1d.orb
Pb_gga_7au_100Ry_2s2p2d1f.orb
I_gga_7au_100Ry_2s2p2d1f.orb
C_gga_7au_100Ry_2s2p1d.orb
N_gga_7au_100Ry_2s2p1d.orb
H_gga_6au_100Ry_2s1p.orb

LATTICE_CONSTANT
1.889716

LATTICE_VECTORS
   12.64531     0.00000     0.00000
   -0.68091    12.66469     0.00000
   -0.83119     0.87964    12.63297

ATOMIC_POSITIONS
Cartesian

Cs
0.0
1
  2.0808711  10.0428538   9.6468413 1 1 1

Pb
0.0
8
 -0.7713942   1.0201654  12.5396676 1 1 1
 -0.3539719   0.5819931   6.2244434 1 1 1
 -1.1111059   7.3521994  12.5420670 1 1 1
 -0.6914837   6.9138368   6.2246432 1 1 1
  5.5518796   1.0211254  12.5401673 1 1 1
  5.9698420   0.5829731   6.2240233 1 1 1
  5.2115782   7.3546694  12.5383668 1 1 1
  5.6296703   6.9159769   6.2220535 1 1 1

I
0.0
24
 -0.1387807   0.5711730   3.0814665 1 1 1
 -0.5606330   1.0190755   9.3971899 1 1 1
 -0.4734025   6.9141472   3.0827466 1 1 1
 -0.8895848   7.3457492   9.3994501 1 1 1
  6.1813133   0.5809431   3.0819164 1 1 1
  5.7758908   1.0217755   9.3992709 1 1 1
  5.8457912   6.9111570   3.0799065 1 1 1
  5.4251289   7.3542994   9.3951605 1 1 1
  2.5334635  12.5741669   0.1722009 1 1 1
  2.1211213  13.0258696   6.4942050 1 1 1
  2.8752455   6.2404233   0.1743409 1 1 1
  2.4630533   6.6728659   6.4890647 1 1 1
  8.8562277  12.5715672   0.1768009 1 1 1
  8.4440055  13.0046693   6.4881549 1 1 1
  9.1977994   6.2416135   0.1757909 1 1 1
  8.7855171   6.6910859   6.4907250 1 1 1
 -0.9525951   4.1636223  12.3583665 1 1 1
 -0.5407429   3.7246999   6.0384325 1 1 1
 -1.2923269  10.4963560  12.3593659 1 1 1
 -0.8524846  10.0586543   6.0520926 1 1 1
  5.3748190   4.1658625  12.3606667 1 1 1
  5.8063313   3.7283599   6.0453524 1 1 1
  5.0294368  10.4983559  12.3491663 1 1 1
  5.4440890  10.0588537   6.0355925 1 1 1

C
0.0
7
  2.8439853   3.2739874   3.3382678 1 1 1
  8.8267475   9.6098213   3.3413680 1 1 1
  8.7437870   3.7118598   9.6480315 1 1 1
  8.4150155  10.0444541   9.6552422 1 1 1
  2.4353132   3.7122799   9.6573222 1 1 1
  9.1661096   3.2752077   3.3380678 1 1 1
  2.5118035   9.6127711   3.3400378 1 1 1

N
0.0
14
  1.9163703   4.1989523   3.4152183 1 1 1
  3.7489401   3.2050371   2.3906628 1 1 1
  7.9029326  10.5391562   3.4109782 1 1 1
  9.7358424   9.5336710   2.3983128 1 1 1
  7.8222317   4.6423951   9.7299325 1 1 1
  9.6434414   3.6372594   8.6958264 1 1 1
  7.4928800  10.9751584   9.7282225 1 1 1
  9.3215898   9.9676838   8.7097864 1 1 1
  1.5080580   4.6374551   9.7359826 1 1 1
  3.3401079   3.6444096   8.7095470 1 1 1
  8.2497438   4.2117225   3.4086882 1 1 1
 10.0697542   3.1883771   2.3906829 1 1 1
  1.5933486  10.5468562   3.4164483 1 1 1
  3.4117584   9.5303913   2.3887929 1 1 1

H
0.0
35
  3.7801702   3.8851808   1.6206387 1 1 1
  1.2181465   4.1654023   4.1735425 1 1 1
  4.4648539   2.4645232   2.4211229 1 1 1
  2.8640452   2.5032435   4.1231219 1 1 1
  1.8425098   4.9559167   2.7257946 1 1 1
  9.7737321  10.2107548   1.6260687 1 1 1
  7.2014785  10.5110560   4.1663322 1 1 1
 10.4486558   8.7902874   2.4341430 1 1 1
  8.8395573   8.8413770   4.1287119 1 1 1
  7.8362518  11.2939601   2.7183545 1 1 1
  9.6754717   4.3173330   7.9258824 1 1 1
  7.1268683   4.6115846  10.4909563 1 1 1
 10.3560555   2.8937555   8.7241269 1 1 1
  8.7631772   2.9408157  10.4325558 1 1 1
  7.7487217   5.3992289   9.0404785 1 1 1
  9.3585402  10.6454571   7.9382025 1 1 1
  6.7924763  10.9465585  10.4845561 1 1 1
 10.0333542   9.2233399   8.7437765 1 1 1
  8.4286655   9.2753202  10.4417560 1 1 1
  7.4250996  11.7303628   9.0362585 1 1 1
  3.3712182   4.3255332   7.9404527 1 1 1
  0.8097743   4.6027745  10.4941559 1 1 1
  4.0553415   2.9032255   8.7388364 1 1 1
  2.4550732   2.9400857  10.4406564 1 1 1
  1.4341376   5.3953689   9.0476588 1 1 1
 10.1093539   3.8622107   1.6158686 1 1 1
  7.5510807   4.1900325   4.1668123 1 1 1
 10.7781578   2.4409430   2.4270631 1 1 1
  9.1771189   2.5098635   4.1281721 1 1 1
  8.1848841   4.9640068   2.7130446 1 1 1
  3.4463185  10.2060550   1.6152787 1 1 1
  0.8972048  10.5215560   4.1768026 1 1 1
  4.1221720   8.7846674   2.4210230 1 1 1
  2.5280635   8.8457277   4.1284020 1 1 1
  1.5233982  11.3003602   2.7227047 1 1 1

