Mn1
1.0
  -1.3932737399999999   -1.3932737399999999    1.3932737399999999
  -1.3932737399999999    1.3932737399999999   -1.3932737399999999
   1.3932737399999999   -1.3932737399999999   -1.3932737399999999
Mn
1
direct
   0.0000000000000000    0.0000000000000000    0.0000000000000000 Mn
