ATOMIC_SPECIES
Ga	1	Ga.upf
N	1	N_ONCV_PBE-1.0.upf

NUMERICAL_ORBITAL
Ga_gga_8au_100Ry_2s2p2d1f.orb
N_gga_7au_100Ry_2s2p1d.orb

LATTICE_CONSTANT
1.889766

LATTICE_VECTORS
0.0	2.26	2.26
2.26	0.0	2.26
2.26	2.26	0.0

ATOMIC_POSITIONS
Direct

Ga
0.0
1
0.0	0.0	0.0	1 1 1

N
0.0
1
0.25	0.25	0.25	1 1 1
