ATOMIC_SPECIES
Ac 227.000000 Ac-5spd.upf
H 1.007900 H.upf

LATTICE_CONSTANT
1.000000

LATTICE_VECTORS
    7.88587481144     0.00000000000     0.00000000000
    3.94293740572     6.82936791777     0.00000000000
    3.94293740572     2.27645597259     6.43878982116

ATOMIC_POSITIONS
Cartesian

Ac
0.000000
1
    0.00000000000     0.00000000000     0.00000000000 

H
0.000000
2
   11.82881221716     6.82936791777     4.82909236587 
    3.94293740572     2.27645597259     1.60969745529 
