ATOMIC_SPECIES
B 10.811 B_ONCV_PBE-1.0.upf
As 74.922 As_ONCV_PBE-1.0.upf

NUMERICAL_ORBITAL
B_gga_8au_100Ry_2s2p1d.orb
As_gga_7au_100Ry_2s2p1d.orb

LATTICE_CONSTANT
1.889716

LATTICE_VECTORS
    0.00000     2.40963     2.40963
    2.40963     0.00000     2.40963
    2.40963     2.40963     0.00000

ATOMIC_POSITIONS
Direct

B
0.0
1
  0.2500000   0.2500000   0.2500000 1 1 1

As
0.0
1
  0.0000000   0.0000000   0.0000000 1 1 1

