ATOMIC_SPECIES
Th 232.038100 Th-5spdf_r.upf
Si 28.085500 Si.upf
Tc 98.000000 Tc_ONCV_PBE-1.0.upf

LATTICE_CONSTANT
1.000000

LATTICE_VECTORS
   10.91801920758     0.00000000000     0.00000000000
    4.96520658188     9.72367559190     0.00000000000
   -7.94161289426    -4.86183779566     5.70056675284

ATOMIC_POSITIONS
Cartesian

Th
0.000000
1
    0.00000000000     0.00000000000     0.00000000000 

Si
0.000000
2
   10.00559043639     6.12540026809     0.00000000000 
    5.87763535307     3.59827532381     0.00000000000 

Tc
0.000000
2
    2.48260329117     4.86183779609     2.85028337642 
    5.45900960403     0.00000000014     2.85028337642 
