Gd2
1.0
   3.6419335899999998    0.0000000300000000    0.0000000000000000
  -1.8209657500000000    3.1540053000000001    0.0000000000000000
   0.0000000000000000    0.0000000000000000    5.9017153000000002
Gd
2
direct
   0.3333330000000000    0.6666670000000000    0.2500000000000000 Gd
   0.6666670000000000    0.3333330000000000    0.7500000000000000 Gd
