Ce1
1.0
   2.8612660999999999    0.0000000000000000    1.6519528200000000
   0.9537557100000000    2.6976286900000002    1.6519528200000000
  -0.0000000100000000   -0.0000000100000000    3.3039066899999998
Ce
1
direct
   0.0000000000000000   -0.0000000000000000    0.0000000000000000 Ce
