ATOMIC_SPECIES
Fe 55.845 Fe_ONCV_PBE-1.0.upf upf201
O 15.999 O_ONCV_PBE-1.0.upf upf201

NUMERICAL_ORBITAL
Fe_gga_8au_100Ry_4s2p2d1f.orb
O_gga_7au_100Ry_2s2p1d.orb

LATTICE_CONSTANT
1.88972612463

LATTICE_VECTORS
    6.1770470802    -0.0408150122    -0.0410418470 #latvec1
   -3.5050940391     5.0865301249     0.0435374022 #latvec2
   -0.9619950582     0.4941200504    14.4436253117 #latvec3

ATOMIC_POSITIONS
Direct

Fe #label
4 #magnetism
12 #number of atoms
    0.1630444132     0.3302516000     0.1672329850 m  1  1  1 mag         4.0000000000
    0.1631810520     0.8302941248     0.1672557835 m  1  1  1 mag         4.0000000000
    0.6630065422     0.3301912148     0.1672573022 m  1  1  1 mag         4.0000000000
    0.6632240522     0.8301373765     0.1673104816 m  1  1  1 mag         4.0000000000
    0.0038483042     0.0041830644     0.4999488246 m  1  1  1 mag         4.0000000000
    0.0037161332     0.5042355651     0.4999240991 m  1  1  1 mag         4.0000000000
    0.5038926132     0.0040733003     0.5000117868 m  1  1  1 mag         4.0000000000
    0.5037848613     0.5041374731     0.4999553820 m  1  1  1 mag         4.0000000000
    0.3331228513     0.1656705697     0.8327789105 m  1  1  1 mag         4.0000000000
    0.3330394809     0.6656360377     0.8327764979 m  1  1  1 mag         4.0000000000
    0.8331718641     0.1656088315     0.8327980777 m  1  1  1 mag         4.0000000000
    0.8330015539     0.6656552065     0.8327585206 m  1  1  1 mag         4.0000000000

O #label
0 #magnetism
24 #number of atoms
    0.9922901462     0.0015306959     0.2343893599 m  1  1  1 mag         0.0000000000
    0.9920632977     0.5013956587     0.2343702367 m  1  1  1 mag         0.0000000000
    0.4918631816     0.0016627154     0.2345009000 m  1  1  1 mag         0.0000000000
    0.4919973881     0.5011815789     0.2343704322 m  1  1  1 mag         0.0000000000
    0.3344063772     0.1586999881     0.0998443398 m  1  1  1 mag         0.0000000000
    0.3342395627     0.6594099803     0.1002139603 m  1  1  1 mag         0.0000000000
    0.8337677418     0.1588894811     0.1001867813 m  1  1  1 mag         0.0000000000
    0.8341662834     0.6589786907     0.1000270021 m  1  1  1 mag         0.0000000000
    0.3324745341     0.1755338757     0.5671595733 m  1  1  1 mag         0.0000000000
    0.3326763252     0.6752030343     0.5669597999 m  1  1  1 mag         0.0000000000
    0.8329027222     0.1754019340     0.5669653359 m  1  1  1 mag         0.0000000000
    0.8328207513     0.6754112399     0.5670812015 m  1  1  1 mag         0.0000000000
    0.1750389300     0.3326948000     0.4327660461 m  1  1  1 mag         0.0000000000
    0.1749132678     0.8330769823     0.4329499705 m  1  1  1 mag         0.0000000000
    0.6746990122     0.3328358382     0.4329519214 m  1  1  1 mag         0.0000000000
    0.6748412566     0.8330086868     0.4328302922 m  1  1  1 mag         0.0000000000
    0.1620381374     0.3371901926     0.9001387504 m  1  1  1 mag         0.0000000000
    0.1621925731     0.8365072993     0.8998190750 m  1  1  1 mag         0.0000000000
    0.6621693231     0.3368331367     0.8998841127 m  1  1  1 mag         0.0000000000
    0.6617734056     0.8367448635     0.9000655714 m  1  1  1 mag         0.0000000000
    0.0040999318     0.9945943274     0.7656880876 m  1  1  1 mag         0.0000000000
    0.0042121148     0.4942396279     0.7655871971 m  1  1  1 mag         0.0000000000
    0.5042817010     0.9944703193     0.7656291415 m  1  1  1 mag         0.0000000000
    0.5040384574     0.4944309225     0.7656122959 m  1  1  1 mag         0.0000000000
