LATTICE_CONSTANT
1.8897261246257702

LATTICE_VECTORS
6.085086991429219 -4.711756319410997e-18 4.824262434662892e-18 
-3.419644561245702 5.03442537399631 -1.034360463087675e-17 
-0.8611366352012771 0.43445128671708466 13.083759352119618 

ATOMIC_POSITIONS
Cartesian    # Cartesian(Unit is LATTICE_CONSTANT)
Fe
4 
12
-0.282576423831 1.732380930317 2.191204030487 1 1 1
-1.992478423014 4.249573388983 2.191295933810 1 1 1
2.760056194591 1.732366081002 2.191112425647 1 1 1
1.050159884934 4.249594816224 2.191214975354 1 1 1
-0.419864691548 0.241724467718 6.540639022722 1 1 1
-2.129725500321 2.759014992780 6.540662278739 1 1 1
2.622619156564 0.241794718269 6.540582703030 1 1 1
0.912836721361 2.759099342030 6.540721311383 1 1 1
0.743974043893 1.194544543227 10.893702585708 1 1 1
-0.965796710212 3.711819205041 10.893561781696 1 1 1
3.786517639722 1.194654762764 10.893552134613 1 1 1
2.076750467352 3.711866818277 10.893574258338 1 1 1
O
0 
24
5.824338436794 0.109950395880 3.158249822685 1 1 1
4.114496173760 2.627152768068 3.158266474227 1 1 1
2.781767835728 0.109977855421 3.158291196704 1 1 1
1.071941520955 2.627193647551 3.158273413909 1 1 1
1.405833876103 0.837967779142 1.223352507853 1 1 1
-0.304001417912 3.355217236957 1.223372572143 1 1 1
4.448372167704 0.838011322540 1.223383038030 1 1 1
2.738567834599 3.355204049938 1.223363112583 1 1 1
0.934231760956 1.135686693483 7.507810843070 1 1 1
-0.775619262053 3.652952221883 7.507832563387 1 1 1
3.976698667075 1.135700223409 7.507865936199 1 1 1
2.266966612032 3.652966904856 7.507843760983 1 1 1
-0.441956484266 1.864306405741 5.573555641246 1 1 1
-2.151815835538 4.381432677656 5.573528987722 1 1 1
2.600568009493 1.864263508675 5.573504805152 1 1 1
0.890775377529 4.381484992449 5.573511174410 1 1 1
-0.945724289994 2.088957164215 11.861801799358 1 1 1
-2.655568470510 4.606067172820 11.861832244110 1 1 1
2.096858659628 2.088912732183 11.861844948114 1 1 1
0.387019493994 4.606182571571 11.861770788234 1 1 1
-0.610107050898 0.301063799403 9.926690118890 1 1 1
-2.319876498736 2.818232619478 9.926606147071 1 1 1
2.432435343160 0.301021335796 9.926639005572 1 1 1
0.722676227951 2.818164818801 9.926654465989 1 1 1

ATOMIC_SPECIES
Fe 55.845 Fe_ONCV_PBE-1.0.upf
O 15.999 O_ONCV_PBE-1.0.upf

NUMERICAL_ORBITAL
Fe_gga_8au_100Ry_4s2p2d1f.orb
O_gga_7au_100Ry_2s2p1d.orb
