ATOMIC_SPECIES
Ga 69.723 Ga.upf
As 74.922 As_ONCV_PBE-1.0.upf

NUMERICAL_ORBITAL
Ga_gga_8au_100Ry_2s2p2d1f.orb
As_gga_7au_100Ry_2s2p1d.orb

LATTICE_CONSTANT
1.889716

LATTICE_VECTORS
    0.00000     2.84000     2.84000
    2.84000     0.00000     2.84000
    2.84000     2.84000     0.00000

ATOMIC_POSITIONS
Direct

Ga
0.0
1
  0.0000000   0.0000000   0.0000000 1 1 1

As
0.0
1
  0.2500000   0.2500000   0.2500000 1 1 1

