ATOMIC_SPECIES
K 39.098300 K_ONCV_PBE-1.0.upf
U 238.028900 U-5spdf.upf
O 15.999400 O.upf

LATTICE_CONSTANT
1.000000

LATTICE_VECTORS
    8.18511347522     0.00000000000     0.00000000000
    0.00000000000     8.18511347522     0.00000000000
    0.00000000000     0.00000000000     8.18511347522

ATOMIC_POSITIONS
Cartesian

K
0.000000
1
    4.09255673761     4.09255673761     4.09255673761 

U
0.000000
1
    0.00000000000     0.00000000000     0.00000000000 

O
0.000000
3
    0.00000000000     4.09255673761     0.00000000000 
    0.00000000000     0.00000000000     4.09255673761 
    4.09255673761     0.00000000000     0.00000000000 
