LATTICE_CONSTANT
1.8897261246257702

LATTICE_VECTORS
4.323994762709773 4.6355310047718145e-49 0.0 
7e-16 4.323994762709773 4.930380657631324e-32 
3e-16 2.999999999999999e-16 4.323994762709773 

ATOMIC_POSITIONS
Cartesian    # Cartesian(Unit is LATTICE_CONSTANT)
Li
0 
4
0.000000000000 0.000000000000 0.000000000000 1 1 1
0.000000000000 2.161997381355 2.161997381355 1 1 1
2.161997381355 0.000000000000 2.161997381355 1 1 1
2.161997381355 2.161997381355 0.000000000000 1 1 1

ATOMIC_SPECIES
Li 6.941 Li_ONCV_PBE-1.0.upf

NUMERICAL_ORBITAL
Li_gga_7au_100Ry_4s1p.orb
