ATOMIC_SPECIES
Li 6.941 Li_ONCV_PBE-1.0.upf upf201

NUMERICAL_ORBITAL
Li_gga_7au_100Ry_4s1p.orb

LATTICE_CONSTANT
1.88972612463

LATTICE_VECTORS
    4.3218560631     0.0000000000    -0.0000000000 #latvec1
    0.0000000000     4.3218560631    -0.0000000000 #latvec2
   -0.0000000000    -0.0000000000     4.3218560631 #latvec3

ATOMIC_POSITIONS
Direct

Li #label
0 #magnetism
4 #number of atoms
    0.0000000000     1.0000000000     0.0000000000 m  1  1  1 mag         1.0000000000
    1.0000000000     0.5000000000     0.5000000000 m  1  1  1 mag         1.0000000000
    0.5000000000     1.0000000000     0.5000000000 m  1  1  1 mag         1.0000000000
    0.5000000000     0.5000000000     0.0000000000 m  1  1  1 mag         1.0000000000
