ATOMIC_SPECIES
C 12.011 ./C_ONCV_PBE-1.0.upf
H 1.008 ./H_ONCV_PBE-1.0.upf
O 15.999 ./O_ONCV_PBE-1.0.upf

NUMERICAL_ORBITAL
./C_gga_7au_100Ry_2s2p1d.orb
./H_gga_6au_100Ry_2s1p.orb
./O_gga_7au_100Ry_2s2p1d.orb

LATTICE_CONSTANT
1.889716

LATTICE_VECTORS
   13.10000     0.00000     0.00000
    0.00000    13.10000     0.00000
    0.00000     0.00000    13.10000

ATOMIC_POSITIONS
Direct

C
0.0
60
  0.6805329   0.8690041   0.6040092 1 1 1
  0.7504720   0.8743245   0.5130806 1 1 1
  0.6037566   0.7750910   0.4782965 1 1 1
  0.4293349   0.9744923   0.4090609 1 1 1
  0.4030388   0.0616000   0.3345857 1 1 1
  0.5314476   0.1125268   0.4481695 1 1 1
  0.4786176   0.4857908   0.4453103 1 1 1
  0.3989887   0.5106071   0.5258542 1 1 1
  0.5339781   0.4252326   0.5977791 1 1 1
  0.6789104   0.1205334   0.0618819 1 1 1
  0.6724395   0.0270917   0.1289565 1 1 1
  0.7675019   0.9858915   0.9922296 1 1 1
  0.0630877   0.3089652   0.5127433 1 1 1
  0.0655258   0.1991702   0.4723362 1 1 1
  0.2282380   0.2688488   0.4661967 1 1 1
  0.0581708   0.7566437   0.6778228 1 1 1
  0.1017152   0.8280026   0.7634498 1 1 1
  0.2312855   0.7376915   0.7006988 1 1 1
  0.0956169   0.9298069   0.0610294 1 1 1
  0.2045455   0.9194386   0.0240086 1 1 1
  0.1545068   0.7614276   0.0827120 1 1 1
  0.3475388   0.1156400   0.6796701 1 1 1
  0.3681071   0.2266203   0.7075726 1 1 1
  0.2816059   0.1568539   0.8328959 1 1 1
  0.8096819   0.4885816   0.6401257 1 1 1
  0.7870408   0.5897805   0.6932275 1 1 1
  0.8896136   0.6143612   0.5504116 1 1 1
  0.4062670   0.6402331   0.1812467 1 1 1
  0.3502074   0.6842918   0.2736008 1 1 1
  0.4269932   0.8133525   0.1818208 1 1 1
  0.7036705   0.7668834   0.1862394 1 1 1
  0.8211218   0.7703250   0.1946277 1 1 1
  0.7760274   0.6278847   0.2809833 1 1 1
  0.0970288   0.8134106   0.3559127 1 1 1
  0.0211078   0.8984754   0.3824300 1 1 1
  0.1584566   0.9156643   0.4993519 1 1 1
  0.1290757   0.4542869   0.2596623 1 1 1
  0.0284301   0.5081954   0.2369134 1 1 1
  0.0094353   0.3296515   0.2274249 1 1 1
  0.1832046   0.4833721   0.8249246 1 1 1
  0.1764848   0.4602171   0.9389830 1 1 1
  0.0405208   0.5617243   0.8778649 1 1 1
  0.0075918   0.1687707   0.9527595 1 1 1
  0.0039298   0.1049017   0.8520362 1 1 1
  0.9899748   0.2697834   0.7957523 1 1 1
  0.7270762   0.5444863   0.9654023 1 1 1
  0.8032461   0.4681779   0.0177100 1 1 1
  0.6479387   0.4679126   0.0988710 1 1 1
  0.4338337   0.7761724   0.8864032 1 1 1
  0.5241674   0.7355428   0.8152247 1 1 1
  0.4459083   0.6004103   0.8941870 1 1 1
  0.6603489   0.1087053   0.7311189 1 1 1
  0.7390185   0.1824283   0.6921361 1 1 1
  0.6653777   0.2524359   0.8399215 1 1 1
  0.7773961   0.3121241   0.4193710 1 1 1
  0.7309032   0.3068925   0.3101420 1 1 1
  0.7953093   0.1503288   0.3718884 1 1 1
  0.4390535   0.2611494   0.0713383 1 1 1
  0.3742491   0.3558233   0.1078325 1 1 1
  0.2893932   0.1966064   0.1244211 1 1 1

H
0.0
80
  0.6334266   0.9368622   0.6176995 1 1 1
  0.7195911   0.8474996   0.6748336 1 1 1
  0.7707358   0.9519017   0.4894861 1 1 1
  0.8176485   0.8250079   0.5222786 1 1 1
  0.4710481   0.9105879   0.3741088 1 1 1
  0.3635190   0.9470095   0.4515097 1 1 1
  0.4183792   0.0370317   0.2566726 1 1 1
  0.3286204   0.0991857   0.3359535 1 1 1
  0.5052521   0.5525613   0.4034797 1 1 1
  0.4482807   0.4271635   0.3935916 1 1 1
  0.3934761   0.5921986   0.5411946 1 1 1
  0.3259605   0.4783848   0.5008897 1 1 1
  0.7029888   0.1983542   0.1012298 1 1 1
  0.6023754   0.1487241   0.0242829 1 1 1
  0.7323648   0.0390868   0.1889404 1 1 1
  0.5985099  -0.0013284   0.1522409 1 1 1
  0.0540730   0.3116644   0.5956605 1 1 1
  0.0057525   0.3586188   0.4790041 1 1 1
  0.0325536   0.1416359   0.5226960 1 1 1
  0.0295203   0.1936911   0.3970234 1 1 1
  0.0116510   0.8062640   0.6299359 1 1 1
  0.0128232   0.6929280   0.7045325 1 1 1
  0.0999145   0.9032877   0.7246095 1 1 1
  0.0591031   0.8303185   0.8342084 1 1 1
  0.0436064   0.9558753   0.0008246 1 1 1
  0.0925496   0.9802205   0.1278177 1 1 1
  0.2107476   0.9306819   0.9415929 1 1 1
  0.2573162   0.9704492   0.0641596 1 1 1
  0.4161864   0.0714851   0.6649594 1 1 1
  0.2936112   0.1041051   0.6171851 1 1 1
  0.4474355   0.2412720   0.7290855 1 1 1
  0.3428108   0.2759631   0.6458552 1 1 1
  0.7447921   0.4534296   0.6015371 1 1 1
  0.8454580   0.4335019   0.6909266 1 1 1
  0.7052256   0.6006112   0.7062881 1 1 1
  0.8270573   0.6066986   0.7650915 1 1 1
  0.3534115   0.6122129   0.1224826 1 1 1
  0.4629759   0.5839921   0.2034667 1 1 1
  0.2695097   0.6654845   0.2669090 1 1 1
  0.3799092   0.6613273   0.3479909 1 1 1
  0.6670684   0.7576337   0.1120027 1 1 1
  0.6626870   0.8329755   0.2147743 1 1 1
  0.8592987   0.7566431   0.1212811 1 1 1
  0.8544594   0.8453291   0.2121222 1 1 1
  0.1217509   0.8012100   0.2776653 1 1 1
  0.0705642   0.7420624   0.3914825 1 1 1
  0.0342016   0.9666129   0.3354095 1 1 1
  0.9399403   0.8874516   0.3946233 1 1 1
  0.1693853   0.4722564   0.3307956 1 1 1
  0.1842965   0.4539877   0.1971521 1 1 1
  0.9864513   0.5392992   0.3020025 1 1 1
  0.0309754   0.5649958   0.1755825 1 1 1
  0.1504839   0.4201593   0.7814716 1 1 1
  0.2576109   0.5032298   0.7937520 1 1 1
  0.1774847   0.3785605   0.9578390 1 1 1
  0.2305191   0.4993656   0.9893673 1 1 1
  0.0814728   0.1668950   0.9924980 1 1 1
  0.9425285   0.1641411   1.0049354 1 1 1
  0.0807893   0.0754646   0.8380710 1 1 1
  0.9462465   0.0446963   0.8471260 1 1 1
  0.6954273   0.5143048   0.8943969 1 1 1
  0.7590574   0.6209130   0.9554530 1 1 1
  0.8327328   0.4101622   0.9657875 1 1 1
  0.8657094   0.5047750   0.0597524 1 1 1
  0.3732525   0.8182232   0.8478879 1 1 1
  0.4584002   0.8237901   0.9511313 1 1 1
  0.5097244   0.7431047   0.7332782 1 1 1
  0.5998619   0.7699435   0.8296510 1 1 1
  0.6894124   0.0438706   0.7757656 1 1 1
  0.6051989   0.0816517   0.6744467 1 1 1
  0.8168504   0.1556280   0.6775831 1 1 1
  0.7121485   0.2268242   0.6267233 1 1 1
  0.7188678   0.3191177   0.4781827 1 1 1
  0.8271169   0.3763062   0.4347797 1 1 1
  0.6530829   0.3337049   0.2953835 1 1 1
  0.7739550   0.3510169   0.2550025 1 1 1
  0.5168059   0.2484618   0.0976423 1 1 1
  0.4351678   0.2560920   0.9869003 1 1 1
  0.4010278   0.3880261   0.1829853 1 1 1
  0.3716205   0.4244682   0.0577491 1 1 1

O
0.0
60
  0.6824817   0.8292217   0.4286391 1 1 1
  0.6142104   0.7862283   0.5804285 1 1 1
  0.5312882   0.7215152   0.4528864 1 1 1
  0.4894544   0.1288074   0.3567317 1 1 1
  0.4957447   0.0235907   0.4912750 1 1 1
  0.5975172   0.1703705   0.4789931 1 1 1
  0.4373120   0.4572252   0.6113741 1 1 1
  0.5668316   0.4415924   0.4980726 1 1 1
  0.5746013   0.3817179   0.6688892 1 1 1
  0.7049360   0.9396813   0.0623047 1 1 1
  0.7605844   0.0940663   0.9875987 1 1 1
  0.8144006   0.9371647   0.9301404 1 1 1
  0.1740376   0.1802601   0.4557513 1 1 1
  0.1657179   0.3445129   0.4922944 1 1 1
  0.3197846   0.2853860   0.4595235 1 1 1
  0.2132850   0.8109580   0.7817826 1 1 1
  0.1507286   0.7299420   0.6360454 1 1 1
  0.3041147   0.6953078   0.6660987 1 1 1
  0.2322892   0.8146772   0.0426687 1 1 1
  0.0684345   0.8245446   0.0932368 1 1 1
  0.1640278   0.6714618   0.1068358 1 1 1
  0.3029577   0.2553302   0.8003333 1 1 1
  0.3169626   0.0773661   0.7771510 1 1 1
  0.2419844   0.1149640   0.9051036 1 1 1
  0.8175369   0.6556391   0.6149957 1 1 1
  0.8927136   0.5097980   0.5588187 1 1 1
  0.9349350   0.6851155   0.5099150 1 1 1
  0.3584077   0.7943900   0.2561730 1 1 1
  0.4640016   0.7272170   0.1474482 1 1 1
  0.4571027   0.8918910   0.1419888 1 1 1
  0.8490206   0.6982570   0.2690915 1 1 1
  0.6828220   0.6642528   0.2435254 1 1 1
  0.8161134   0.5663751   0.3385055 1 1 1
  0.0576333   0.9296835   0.4898327 1 1 1
  0.1863514   0.8522852   0.4190324 1 1 1
  0.2105995   0.9627066   0.5615893 1 1 1
  0.9683033   0.4205612   0.1989604 1 1 1
  0.0989701   0.3480185   0.2730785 1 1 1
  0.9706788   0.2454833   0.2172399 1 1 1
  0.0726796   0.4971642   0.9545015 1 1 1
  0.1121204   0.5720054   0.8019316 1 1 1
  0.9569636   0.6029889   0.8806427 1 1 1
  0.9863295   0.1716098   0.7585701 1 1 1
 -0.0004485   0.2703347   0.8984415 1 1 1
  0.9943542   0.3511219   0.7494248 1 1 1
  0.7374389   0.4165728   0.0927390 1 1 1
  0.6424103   0.5500394   0.0377411 1 1 1
  0.5820423   0.4485669   0.1607659 1 1 1
  0.5230760   0.6299178   0.8366732 1 1 1
  0.3897083   0.6806961   0.9307955 1 1 1
  0.4336543   0.5089075   0.8976625 1 1 1
  0.7438578   0.2504062   0.7782833 1 1 1
  0.5985953   0.1725467   0.8082515 1 1 1
  0.6751401   0.3250780   0.8988893 1 1 1
  0.7392923   0.1960972   0.2898345 1 1 1
  0.8321726   0.2165745   0.4352166 1 1 1
  0.8357637   0.0666375   0.3792202 1 1 1
  0.2717827   0.3055543   0.1162994 1 1 1
  0.3860022   0.1670421   0.1124041 1 1 1
  0.2296836   0.1300589   0.1485451 1 1 1

