K1
1.0
   4.4050942600000003   -0.0000000400000000   -1.5574357999999999
  -2.2025481899999999    3.8149240999999998   -1.5574357999999999
   0.0000000100000000    0.0000000200000000    4.6723084699999999
K
1
direct
   0.0000000000000000    0.0000000000000000    0.0000000000000000 K
