V1
1.0
   2.4351187599999999    0.0000000000000000   -0.8609448800000000
  -1.2175593800000000    2.1088745100000001   -0.8609448800000000
  -0.0000000000000000   -0.0000000000000000    2.5828336200000002
V
1
direct
   0.0000000000000000    0.0000000000000000   -0.0000000000000000 V
