ATOMIC_SPECIES
Li 6.941000 Li.upf
Ga 69.723000 Ga-low.PD04.PBE.UPF
Ru 101.070000 Ru_ONCV_PBE_FR-1.0.upf

LATTICE_CONSTANT
1.889726

LATTICE_VECTORS
    4.28657465000     0.00000000000     0.00000000000
    2.14328732500     3.71228254200     0.00000000000
    2.14328732500     1.23742751400     3.49997354600

ATOMIC_POSITIONS
Cartesian

Li
0.000000
1
    4.28657000000     2.47486000000     1.74999000000 1 1 1 

Ga
0.000000
2
    6.42986000000     3.71228000000     2.62498000000 1 1 1 
    2.14329000000     1.23743000000     0.87499000000 1 1 1 

Ru
0.000000
1
    0.00000000000     0.00000000000     0.00000000000 1 1 1 
