ATOMIC_SPECIES
Cd	1	Cd_ONCV_PBE-1.0.upf
S	1	S_ONCV_PBE-1.0.upf

NUMERICAL_ORBITAL
Cd_gga_7au_100Ry_4s2p2d1f.orb
S_gga_7au_100Ry_2s2p1d.orb

LATTICE_CONSTANT
1.889766

LATTICE_VECTORS
4.1500000954	0.0	0.0
-2.0750000477	3.5940055083	0.0
0.0	0.0	6.7369999886

ATOMIC_POSITIONS
Direct

Cd
0.0
2
0.333333343	0.666666687	0.0	1 1 1
0.666666627	0.333333313	0.5	1 1 1

S
0.0
2
0.333333343	0.666666687	0.375	1 1 1
0.666666627	0.333333313	0.875	1 1 1
