ATOMIC_SPECIES
Al	1	Al_ONCV_PBE-1.0.upf
N	1	N_ONCV_PBE-1.0.upf

NUMERICAL_ORBITAL
Al_gga_7au_100Ry_4s4p1d.orb
N_gga_7au_100Ry_2s2p1d.orb

LATTICE_CONSTANT
1.889766

LATTICE_VECTORS
3.11	0.0	0.0
-1.555	2.693339	0.0
0.0	0.0	4.98

ATOMIC_POSITIONS
Direct

Al
0.0
2
0.333333	0.666667	0.0	1 1 1
0.666667	0.333333	0.5	1 1 1

N
0.0
2
0.333333	0.666667	0.3869	1 1 1
0.666667	0.333333	0.8869	1 1 1
