ATOMIC_SPECIES
Cd 112.411 Cd_ONCV_PBE-1.0.upf
Se 78.960 Se_ONCV_PBE-1.0.upf

NUMERICAL_ORBITAL
Cd_gga_7au_100Ry_4s2p2d1f.orb
Se_gga_8au_100Ry_2s2p1d.orb

LATTICE_CONSTANT
1.889716

LATTICE_VECTORS
    0.00000     3.07027     3.07027
    3.07027     0.00000     3.07027
    3.07027     3.07027     0.00000

ATOMIC_POSITIONS
Direct

Cd
0.0
1
  0.0000000   0.0000000   0.0000000 1 1 1

Se
0.0
1
  0.7500000   0.7500000   0.7500000 1 1 1

