ATOMIC_SPECIES
Na 22.989 Na_ONCV_PBE-1.0.upf upf201
Mn 54.938 Mn_ONCV_PBE-1.0.upf upf201
O 15.999 O_ONCV_PBE-1.0.upf upf201

NUMERICAL_ORBITAL
Na_gga_8au_100Ry_4s2p1d.orb
Mn_gga_9au_100Ry_4s2p2d1f.orb
O_gga_7au_100Ry_2s2p1d.orb

LATTICE_CONSTANT
1.88972612463

LATTICE_VECTORS
    5.8628394621    -0.0005752749    -0.0093808270 #latvec1
   -3.0388055260     5.3940041798     0.0019741325 #latvec2
   -0.2911901226    -0.5615899718    16.8779526291 #latvec3

ATOMIC_POSITIONS
Direct

Na #label
0 #magnetism
6 #number of atoms
    0.9996915407     0.4999913564     0.0000353700 m  1  1  1 mag         0.0000000000
    0.4996825965     0.9999788715     0.0000383435 m  1  1  1 mag         0.0000000000
    0.3337708130     0.1671109831     0.3333279420 m  1  1  1 mag         0.0000000000
    0.8342387623     0.6667555725     0.3333150331 m  1  1  1 mag         0.0000000000
    0.1663046223     0.3332141854     0.6666474774 m  1  1  1 mag         0.0000000000
    0.6667108927     0.8329065152     0.6666366275 m  1  1  1 mag         0.0000000000

Mn #label
4 #magnetism
12 #number of atoms
    0.1673177881     0.3336432504     0.1666794411 m  1  1  1 mag         4.0000000000
    0.1673023787     0.8336126733     0.1667125222 m  1  1  1 mag         4.0000000000
    0.6672955891     0.3335929368     0.1667129173 m  1  1  1 mag         4.0000000000
    0.6673040829     0.8336280071     0.1666993830 m  1  1  1 mag         4.0000000000
    0.5004005889     0.5000990229     0.4999402491 m  1  1  1 mag         4.0000000000
    0.5004079081     0.0000927112     0.4999395639 m  1  1  1 mag         4.0000000000
    0.0004046689     0.5000918752     0.4999380823 m  1  1  1 mag         4.0000000000
    0.0003957899     0.0000906632     0.4999448158 m  1  1  1 mag         4.0000000000
    0.3322452694     0.1662653628     0.8333792506 m  1  1  1 mag         4.0000000000
    0.3322767082     0.6663238995     0.8333302267 m  1  1  1 mag         4.0000000000
    0.8322640892     0.1663009366     0.8333389780 m  1  1  1 mag         4.0000000000
    0.8322262442     0.6662491036     0.8333871652 m  1  1  1 mag         4.0000000000

O #label
0 #magnetism
24 #number of atoms
    0.9924049323     0.9698053445     0.2299645701 m  1  1  1 mag         0.0000000000
    0.0084909482     0.5187577877     0.2251567451 m  1  1  1 mag         0.0000000000
    0.5085135705     0.0187975567     0.2252001317 m  1  1  1 mag         0.0000000000
    0.4925673438     0.4700040098     0.2299447958 m  1  1  1 mag         0.0000000000
    0.3261053098     0.1484433376     0.1082511058 m  1  1  1 mag         0.0000000000
    0.3421228878     0.6973951407     0.1034371986 m  1  1  1 mag         0.0000000000
    0.8419542845     0.1971768548     0.1034605003 m  1  1  1 mag         0.0000000000
    0.8260545643     0.6483896254     0.1082264487 m  1  1  1 mag         0.0000000000
    0.3415719045     0.1852849199     0.5584006269 m  1  1  1 mag         0.0000000000
    0.3254918239     0.6362668960     0.5632091505 m  1  1  1 mag         0.0000000000
    0.8255937653     0.1363548762     0.5632077277 m  1  1  1 mag         0.0000000000
    0.8416541810     0.6852514772     0.5584228709 m  1  1  1 mag         0.0000000000
    0.1591227954     0.3149209431     0.4414649341 m  1  1  1 mag         0.0000000000
    0.1751643887     0.8637723659     0.4366976745 m  1  1  1 mag         0.0000000000
    0.6752848769     0.3638992600     0.4366764047 m  1  1  1 mag         0.0000000000
    0.6592336696     0.8149218594     0.4414795397 m  1  1  1 mag         0.0000000000
    0.1735158165     0.3515448611     0.8918272176 m  1  1  1 mag         0.0000000000
    0.1576143513     0.8027447613     0.8965929868 m  1  1  1 mag         0.0000000000
    0.6574346217     0.3024931486     0.8966332448 m  1  1  1 mag         0.0000000000
    0.6734523829     0.8514566410     0.8918041182 m  1  1  1 mag         0.0000000000
    0.0072247217     0.0301409034     0.7700891043 m  1  1  1 mag         0.0000000000
    0.9910631654     0.4811474239     0.7748927696 m  1  1  1 mag         0.0000000000
    0.4910609368     0.9811304515     0.7748474980 m  1  1  1 mag         0.0000000000
    0.5070631158     0.5299519466     0.7700968746 m  1  1  1 mag         0.0000000000
