ATOMIC_SPECIES
Tb 158.925300 Tb.upf
Zr 91.224000 Zr.upf
Sb 121.760000 Sb.PD04.PBE.UPF

LATTICE_CONSTANT
1.000000

LATTICE_VECTORS
   16.80279041068     0.00000000000     0.00000000000
   12.89914758192    10.76781116314     0.00000000000
  -14.85096899608    -5.38390558149     5.72678322901

ATOMIC_POSITIONS
Cartesian

Tb
0.000000
2
   20.10259835470     7.28777304114     0.00000000000 
    9.59933963789     3.48003812200     0.00000000000 

Zr
0.000000
2
    0.97591070730    -2.69195279075     2.86339161451 
   -0.97591070708     2.69195279082     2.86339161451 

Sb
0.000000
2
    3.93886310301     1.42795174178     0.00000000000 
   25.76307488958     9.33985942136     0.00000000000 
