ATOMIC_SPECIES
Na 22.989 Na_ONCV_PBE-1.0.upf upf201
Ni 58.693 Ni_ONCV_PBE-1.0.upf upf201
O 15.999 O_ONCV_PBE-1.0.upf upf201

NUMERICAL_ORBITAL
Na_gga_8au_100Ry_4s2p1d.orb
Ni_gga_8au_100Ry_4s2p2d1f.orb
O_gga_7au_100Ry_2s2p1d.orb

LATTICE_CONSTANT
1.88972612463

LATTICE_VECTORS
    5.6553102437    -0.0093743345    -0.0045637618 #latvec1
   -2.8741981937     5.1167307068    -0.0025152521 #latvec2
   -0.4478749066    -0.3306716767    16.7651356441 #latvec3

ATOMIC_POSITIONS
Direct

Na #label
0 #magnetism
6 #number of atoms
    0.0000216420     0.5000528609     0.0000070101 m  1  1  1 mag         0.0000000000
    0.5000581528     0.0000209206     0.0000071421 m  1  1  1 mag         0.0000000000
    0.3330487387     0.1667907282     0.3333927156 m  1  1  1 mag         0.0000000000
    0.8337040582     0.6662091312     0.3333891562 m  1  1  1 mag         0.0000000000
    0.1662723057     0.3337920359     0.6666027835 m  1  1  1 mag         0.0000000000
    0.6669762465     0.8331690905     0.6665992359 m  1  1  1 mag         0.0000000000

Ni #label
1 #magnetism
12 #number of atoms
    0.1669489366     0.3332405203     0.1667444910 m  1  1  1 mag         1.0000000000
    0.1669582500     0.8332838444     0.1667218911 m  1  1  1 mag         1.0000000000
    0.6669497771     0.3332729102     0.1667176131 m  1  1  1 mag         1.0000000000
    0.6669381939     0.8332426367     0.1667637753 m  1  1  1 mag         1.0000000000
    0.4999491831     0.4999420721     0.4999860779 m  1  1  1 mag         1.0000000000
    0.4999473671     0.9999417562     0.4999881066 m  1  1  1 mag         1.0000000000
    0.9999476937     0.4999426205     0.4999867828 m  1  1  1 mag         1.0000000000
    0.9999457577     0.9999388141     0.4999861640 m  1  1  1 mag         1.0000000000
    0.3331091101     0.1668138482     0.8332485421 m  1  1  1 mag         1.0000000000
    0.3330984109     0.6667837959     0.8332945725 m  1  1  1 mag         1.0000000000
    0.8330834215     0.1667680430     0.8332901163 m  1  1  1 mag         1.0000000000
    0.8330972750     0.6668158654     0.8332669896 m  1  1  1 mag         1.0000000000

O #label
0 #magnetism
24 #number of atoms
    0.9950379309     0.9766628577     0.2278623150 m  1  1  1 mag         0.0000000000
    0.0062051195     0.5162992422     0.2247704138 m  1  1  1 mag         0.0000000000
    0.5061487896     0.0163849896     0.2248024771 m  1  1  1 mag         0.0000000000
    0.4951074045     0.4767729172     0.2278439084 m  1  1  1 mag         0.0000000000
    0.3277087936     0.1502341556     0.1086325029 m  1  1  1 mag         0.0000000000
    0.3388380296     0.6898041934     0.1056783676 m  1  1  1 mag         0.0000000000
    0.8387797420     0.1897073798     0.1056847190 m  1  1  1 mag         0.0000000000
    0.8277509508     0.6502114513     0.1086176543 m  1  1  1 mag         0.0000000000
    0.3389628489     0.1829965480     0.5580536845 m  1  1  1 mag         0.0000000000
    0.3282266307     0.6436558173     0.5610963761 m  1  1  1 mag         0.0000000000
    0.8280394466     0.1433291516     0.5611448222 m  1  1  1 mag         0.0000000000
    0.8391326353     0.6828352321     0.5579914764 m  1  1  1 mag         0.0000000000
    0.1607597281     0.3170430624     0.4419853130 m  1  1  1 mag         0.0000000000
    0.1718705554     0.8565673306     0.4388336451 m  1  1  1 mag         0.0000000000
    0.6716844637     0.3562426377     0.4388812732 m  1  1  1 mag         0.0000000000
    0.6609271359     0.8168856934     0.4419242307 m  1  1  1 mag         0.0000000000
    0.1722817737     0.3498507130     0.8913961757 m  1  1  1 mag         0.0000000000
    0.1612747497     0.8103603404     0.8943256441 m  1  1  1 mag         0.0000000000
    0.6611985384     0.3102324615     0.8943365376 m  1  1  1 mag         0.0000000000
    0.6723428401     0.8498101168     0.8913736123 m  1  1  1 mag         0.0000000000
    0.0050116037     0.0234048917     0.7721435967 m  1  1  1 mag         0.0000000000
    0.9938323877     0.4837646274     0.7752438788 m  1  1  1 mag         0.0000000000
    0.4939024270     0.9836626718     0.7752055390 m  1  1  1 mag         0.0000000000
    0.5049216455     0.5232603423     0.7721662989 m  1  1  1 mag         0.0000000000
