ATOMIC_SPECIES
C 12.011 C_ONCV_PBE-1.0.upf

NUMERICAL_ORBITAL
C_gga_7au_100Ry_2s2p1d.orb

LATTICE_CONSTANT
1.889716

LATTICE_VECTORS
    0.00000     1.78671     1.78671
    1.78671     0.00000     1.78671
    1.78671     1.78671     0.00000

ATOMIC_POSITIONS
Direct

C
0.0
2
  0.0000000   0.0000000   0.0000000 1 1 1
  0.2500000   0.2500000   0.2500000 1 1 1

