ATOMIC_SPECIES
Al	1	Al_ONCV_PBE-1.0.upf
Sb	1	Sb_ONCV_PBE-1.0.upf

NUMERICAL_ORBITAL
Al_gga_7au_100Ry_4s4p1d.orb
Sb_gga_7au_100Ry_2s2p2d1f.orb

LATTICE_CONSTANT
1.889766

LATTICE_VECTORS
0.0	3.067741	3.067741
3.067741	0.0	3.067741
3.067741	3.067741	0.0

ATOMIC_POSITIONS
Direct

Al
0.0
1
0.0	0.0	0.0	1 1 1

Sb
0.0
1
0.25	0.25	0.25	1 1 1
