ATOMIC_SPECIES
Y 88.905900 Y.upf
Si 28.085500 Si.upf
Mo 95.940000 Mo_ONCV_PBE-1.0.upf

LATTICE_CONSTANT
1.889726

LATTICE_VECTORS
    6.75995000000     0.00000000000     0.00000000000
    0.00000000000     6.93827100000     0.00000000000
    2.22383999900     0.00000000000     6.50248399700

ATOMIC_POSITIONS
Cartesian

Y
0.000000
4
    2.22013000000     5.75987000000     5.26169000000 1 1 1 
    5.60011000000     4.64754000000     5.26169000000 1 1 1 
    6.76366000000     1.17840000000     1.24080000000 1 1 1 
    3.38368000000     2.29073000000     1.24080000000 1 1 1 

Si
0.000000
8
    7.89473000000     3.15714000000     5.91513000000 1 1 1 
    3.61494000000     4.38116000000     3.22004000000 1 1 1 
    1.98887000000     0.91203000000     3.28244000000 1 1 1 
    4.46903000000     6.62627000000     0.58735000000 1 1 1 
    6.99492000000     6.02624000000     3.22004000000 1 1 1 
    5.36885000000     2.55711000000     3.28244000000 1 1 1 
    4.51476000000     0.31200000000     5.91513000000 1 1 1 
    1.08906000000     3.78114000000     0.58735000000 1 1 1 

Mo
0.000000
6
    6.73160000000     1.12860000000     4.87946000000 1 1 1 
    5.63217000000     4.59774000000     1.62303000000 1 1 1 
    2.25219000000     5.80967000000     1.62303000000 1 1 1 
    3.35162000000     2.34054000000     4.87946000000 1 1 1 
    1.11192000000     3.46914000000     3.25124000000 1 1 1 
    4.49189000000     0.00000000000     3.25124000000 1 1 1 
