Ti2
1.0
   2.9357312400000000   -0.0000000000000000    0.0000000000000000
  -1.4678656200000000    2.5424194099999999   -0.0000000000000000
  -0.0000000000000000    0.0000000000000000    4.6408561500000003
Ti
2
direct
   0.3333330000000000    0.6666670000000000    0.2500000000000000 Ti
   0.6666670000000000    0.3333330000000000    0.7500000000000000 Ti
