ATOMIC_SPECIES
As 74.922 ./As_ONCV_PBE-1.0.upf
Ca 40.078 ./Ca_ONCV_PBE-1.0.upf
Mg 24.305 ./Mg_ONCV_PBE-1.0.upf

NUMERICAL_ORBITAL
./As_gga_7au_100Ry_2s2p1d.orb
./Ca_gga_9au_100Ry_4s2p1d.orb
./Mg_gga_8au_100Ry_4s2p1d.orb

LATTICE_CONSTANT
1.889716

LATTICE_VECTORS
    2.15396    -8.15585     0.00000
    2.15396     8.15585     0.00000
    0.00000     0.00000     7.27938

ATOMIC_POSITIONS
Direct

As
0.0
4
  0.3226184   0.6773816   0.0171974 1 1 1
  0.0618820   0.9381180   0.0569357 1 1 1
  0.6773816   0.3226184   0.5171974 1 1 1
  0.9381180   0.0618820   0.5569357 1 1 1

Ca
0.0
4
  0.7012800   0.2987200   0.1048490 1 1 1
  0.4649868   0.5350132   0.2644187 1 1 1
  0.2987200   0.7012800   0.6048490 1 1 1
  0.5350132   0.4649868   0.7644187 1 1 1

Mg
0.0
2
  0.0977845   0.9022155   0.4222378 1 1 1
  0.9022155   0.0977845   0.9222378 1 1 1

