ATOMIC_SPECIES
Zr 91.224000 Zr.upf
Si 28.085500 Si.upf

LATTICE_CONSTANT
1.889726

LATTICE_VECTORS
    3.68008800000     0.00000000000     0.00000000000
    0.00000000000     3.72069400000     0.00000000000
    0.00000000000     1.86034700000     7.37650299800

ATOMIC_POSITIONS
Cartesian

Zr
0.000000
2
    0.92002000000     3.72069000000     1.54802000000 1 1 1 
    2.76007000000     1.86035000000     5.82848000000 1 1 1 

Si
0.000000
4
    0.92002000000     3.72069000000     6.58655000000 1 1 1 
    2.76007000000     1.86035000000     0.78995000000 1 1 1 
    0.92002000000     1.86035000000     3.68440000000 1 1 1 
    2.76007000000     3.72069000000     3.69210000000 1 1 1 
