Nd4
1.0
   3.7100746299999998    0.0000000600000000    0.0000000000000000
  -1.8550352200000000    3.2130180699999999    0.0000000000000000
   0.0000000000000000    0.0000000000000000   11.8992154699999997
Nd
4
direct
  -0.0000000000000000   -0.0000000000000000    0.0000000000000000 Nd
  -0.0000000000000000   -0.0000000000000000    0.5000000000000000 Nd
   0.3333330000000000    0.6666670000000000    0.2500000000000000 Nd
   0.6666670000000000    0.3333330000000000    0.7500000000000000 Nd
