ATOMIC_SPECIES
Sc 44.955900 Sc_ONCV_PBE-1.0.upf
Si 28.085500 Si.upf
W 183.840000 W_ONCV_PBE_FR-1.0.upf

LATTICE_CONSTANT
1.889726

LATTICE_VECTORS
    6.58031600000     0.00000000000     0.00000000000
    0.00000000000     6.78902600000     0.00000000000
    0.00000000000     0.00000000000    12.66228200000

ATOMIC_POSITIONS
Cartesian

Sc
0.000000
8
    3.24481000000     4.54546000000     7.50138000000 1 1 1 
    6.53497000000     5.63808000000    11.49205000000 1 1 1 
    3.33550000000     2.24357000000     1.17024000000 1 1 1 
    0.04534000000     1.15094000000     5.16091000000 1 1 1 
    3.33550000000     2.24357000000     5.16091000000 1 1 1 
    0.04534000000     1.15094000000     1.17024000000 1 1 1 
    3.24481000000     4.54546000000    11.49205000000 1 1 1 
    6.53497000000     5.63808000000     7.50138000000 1 1 1 

Si
0.000000
16
    4.39677000000     6.53589000000     5.76925000000 1 1 1 
    1.10661000000     3.64765000000     0.56189000000 1 1 1 
    2.18355000000     0.25314000000    12.10039000000 1 1 1 
    5.47370000000     3.14138000000     6.89303000000 1 1 1 
    2.18355000000     0.25314000000     6.89303000000 1 1 1 
    5.47370000000     3.14138000000    12.10039000000 1 1 1 
    4.39677000000     6.53589000000     0.56189000000 1 1 1 
    1.10661000000     3.64765000000     5.76925000000 1 1 1 
    3.05148000000     2.59025000000     9.49671000000 1 1 1 
    6.34163000000     0.80426000000     9.49671000000 1 1 1 
    3.52884000000     4.19877000000     3.16557000000 1 1 1 
    0.23868000000     5.98476000000     3.16557000000 1 1 1 
    4.58870000000     5.81856000000     9.49671000000 1 1 1 
    1.29854000000     4.36498000000     9.49671000000 1 1 1 
    1.99162000000     0.97046000000     3.16557000000 1 1 1 
    5.28178000000     2.42405000000     3.16557000000 1 1 1 

W
0.000000
12
    4.39064000000     1.11631000000     7.90853000000 1 1 1 
    1.10049000000     2.27820000000    11.08489000000 1 1 1 
    2.18967000000     5.67271000000     1.57739000000 1 1 1 
    5.47983000000     4.51083000000     4.75375000000 1 1 1 
    2.18967000000     5.67271000000     4.75375000000 1 1 1 
    5.47983000000     4.51083000000     1.57739000000 1 1 1 
    4.39064000000     1.11631000000    11.08489000000 1 1 1 
    1.10049000000     2.27820000000     7.90853000000 1 1 1 
    5.48063000000     3.41855000000     9.49671000000 1 1 1 
    2.19048000000     6.76499000000     9.49671000000 1 1 1 
    1.09968000000     3.37047000000     3.16557000000 1 1 1 
    4.38984000000     0.02404000000     3.16557000000 1 1 1 
