Ga4
1.0
   1.9520038200000001   -2.3255781199999999    0.0000000000000000
   1.9520038200000001    2.3255781199999999    0.0000000000000000
   0.0000000000000000    0.0000000000000000    7.9166610000000004
Ga
4
direct
   0.2201220700000000    0.7798779300000001    0.1257082400000000 Ga
   0.7798779300000001    0.2201220700000000    0.8742917600000000 Ga
   0.2798779300000000    0.7201220699999999    0.6257082400000000 Ga
   0.7201220699999999    0.2798779300000000    0.3742917600000000 Ga
