ATOMIC_SPECIES
Tb 158.925300 Tb.upf
Al 26.981500 Al.PD04.PBE.upf
Ge 72.640000 Ge-low.PD04.PBE.UPF

LATTICE_CONSTANT
1.889726

LATTICE_VECTORS
    3.99958600000     0.00000000000     0.00000000000
   -1.99979300000     5.35634700100     0.00000000000
    0.00000000000     0.00000000000     6.02364800000

ATOMIC_POSITIONS
Cartesian

Tb
0.000000
2
    0.00000000000     3.37361000000     4.51774000000 1 1 1 
    1.99979000000     1.98274000000     1.50591000000 1 1 1 

Al
0.000000
2
    1.99979000000     1.05655000000     4.51774000000 1 1 1 
    0.00000000000     4.29980000000     1.50591000000 1 1 1 

Ge
0.000000
2
    0.00000000000     0.00000000000     3.01182000000 1 1 1 
    0.00000000000     0.00000000000     0.00000000000 1 1 1 
