ATOMIC_SPECIES
Ti 47.867000 Ti_ONCV_PBE-1.0.upf
Ga 69.723000 Ga-low.PD04.PBE.UPF
Os 190.230000 Os.upf

LATTICE_CONSTANT
1.889726

LATTICE_VECTORS
    8.64468728000     0.00000000000     0.00000000000
    4.32234364000     7.48651879200     0.00000000000
    4.32234364000     2.49550626400     7.05835760700

ATOMIC_POSITIONS
Cartesian

Ti
0.000000
6
   10.61627000000     6.12931000000     1.91939000000 1 1 1 
    8.64469000000     7.26760000000     5.13897000000 1 1 1 
    6.67310000000     6.12931000000     1.91939000000 1 1 1 
    6.67310000000     3.85272000000     5.13897000000 1 1 1 
    8.64469000000     2.71442000000     1.91939000000 1 1 1 
   10.61627000000     3.85272000000     5.13897000000 1 1 1 

Ga
0.000000
16
    4.32234000000     5.01225000000     0.87478000000 1 1 1 
    2.14278000000     1.23713000000     0.87478000000 1 1 1 
    4.32234000000     2.49551000000     4.43400000000 1 1 1 
    6.50191000000     1.23713000000     0.87478000000 1 1 1 
   12.96703000000     4.96977000000     6.18357000000 1 1 1 
   15.14660000000     8.74489000000     6.18357000000 1 1 1 
   12.96703000000     7.48652000000     2.62435000000 1 1 1 
   10.78746000000     8.74489000000     6.18357000000 1 1 1 
    8.64468000000     7.93073000000     2.48984000000 1 1 1 
    6.09882000000     3.52116000000     2.48984000000 1 1 1 
    8.64468000000     4.99102000000     6.64722000000 1 1 1 
   11.19055000000     3.52116000000     2.48984000000 1 1 1 
    8.64469000000     2.05130000000     4.56852000000 1 1 1 
   11.19056000000     6.46087000000     4.56852000000 1 1 1 
    8.64469000000     4.99101000000     0.41114000000 1 1 1 
    6.09883000000     6.46087000000     4.56852000000 1 1 1 

Os
0.000000
7
    0.00000000000     0.00000000000     0.00000000000 1 1 1 
    6.48352000000     3.74326000000     0.00000000000 1 1 1 
   12.96703000000     4.99101000000     3.52918000000 1 1 1 
    2.16117000000     3.74326000000     0.00000000000 1 1 1 
    6.48352000000     8.73427000000     3.52918000000 1 1 1 
    4.32234000000     0.00000000000     0.00000000000 1 1 1 
   10.80586000000     8.73427000000     3.52918000000 1 1 1 
