Mg2
1.0
   3.1720237199999999    0.0000000000000000   -0.0000000000000000
  -1.5860113600000001    2.7470524099999998    0.0000000000000000
  -0.0000000000000000   -0.0000000000000000    5.1412049000000000
Mg
2
direct
   0.3333330000000000    0.6666670000000000    0.2500000000000000 Mg
   0.6666670000000000    0.3333330000000000    0.7500000000000000 Mg
