ALGO = Normal
EDIFF = 1e-07
EDIFFG = -0.001
ENCUT = 650
IBRION = 2
ICHARG = 2
ISIF = 3
ISMEAR = 1
ISTART = 0
ISYM = 2
KGAMMA = False
KSPACING = 0.08
LCHARG = False
LREAL = False
LWAVE = False
NELM = 100
NELMDL = -5
NELMIN = 6
NPAR = 4
NSW = 100
PREC = Accurate
SIGMA = 0.1
PSTRESS = 0.0
