ATOMIC_SPECIES
Na 22.989700 Na.upf
Pb 207.200000 Pb_ONCV_PBE-1.0.upf

LATTICE_CONSTANT
1.889726

LATTICE_VECTORS
    4.94658500000     0.00000000000     0.00000000000
    0.00000000000     4.94658500000     0.00000000000
    0.00000000000     0.00000000000     4.94658500000

ATOMIC_POSITIONS
Cartesian

Na
0.000000
1
    0.00000000000     0.00000000000     0.00000000000 1 1 1 

Pb
0.000000
3
    0.00000000000     2.47329000000     2.47329000000 1 1 1 
    2.47329000000     2.47329000000     0.00000000000 1 1 1 
    2.47329000000     0.00000000000     2.47329000000 1 1 1 
