ATOMIC_SPECIES
B	1	B_ONCV_PBE-1.0.upf
P	1	P_ONCV_PBE-1.0.upf

NUMERICAL_ORBITAL
B_gga_8au_100Ry_2s2p1d.orb
P_gga_7au_100Ry_2s2p1d.orb

LATTICE_CONSTANT
1.889766

LATTICE_VECTORS
0.0	2.269	2.269
2.269	0.0	2.269
2.269	2.269	0.0

ATOMIC_POSITIONS
Direct

B
0.0
1
0.0	0.0	0.0	1 1 1

P
0.0
1
0.25	0.25	0.25	1 1 1
