ATOMIC_SPECIES
Al 26.982 Al_ONCV_PBE-1.0.upf
P 30.974 P_ONCV_PBE-1.0.upf

NUMERICAL_ORBITAL
Al_gga_7au_100Ry_4s4p1d.orb
P_gga_7au_100Ry_2s2p1d.orb

LATTICE_CONSTANT
1.889716

LATTICE_VECTORS
    0.00000     2.73648     2.73648
    2.73648     0.00000     2.73648
    2.73648     2.73648     0.00000

ATOMIC_POSITIONS
Direct

Al
0.0
1
  0.0000000   0.0000000   0.0000000 1 1 1

P
0.0
1
  0.7500000   0.7500000   0.7500000 1 1 1

