Ir1
1.0
   2.3600407200000002   -0.0000000000000000    1.3625697400000001
   0.7866795700000000    2.2250666200000002    1.3625697400000001
   0.0000000000000000   -0.0000000000000000    2.7251394800000002
Ir
1
direct
   0.0000000000000000   -0.0000000000000000    0.0000000000000000 Ir
