ATOMIC_SPECIES
Li 6.941 Li_ONCV_PBE-1.0.upf upf201
Fe 55.845 Fe_ONCV_PBE-1.0.upf upf201
O 15.999 O_ONCV_PBE-1.0.upf upf201

NUMERICAL_ORBITAL
Li_gga_7au_100Ry_4s1p.orb
Fe_gga_8au_100Ry_4s2p2d1f.orb
O_gga_7au_100Ry_2s2p1d.orb

LATTICE_CONSTANT
1.88972612463

LATTICE_VECTORS
    6.0281937762     0.0368083101     0.0677353580 #latvec1
   -2.8602877717     5.1274810397     0.0610490677 #latvec2
    0.8283193806     0.0663178293    14.8991401354 #latvec3

ATOMIC_POSITIONS
Direct

Li #label
0 #magnetism
6 #number of atoms
    0.9997130446     0.4999142308     0.9999849261 m  1  1  1 mag         0.0000000000
    0.4996858035     0.9999228142     0.9999805136 m  1  1  1 mag         0.0000000000
    0.3312979625     0.1641910222     0.3332344607 m  1  1  1 mag         0.0000000000
    0.8312662008     0.6641997823     0.3332295090 m  1  1  1 mag         0.0000000000
    0.1686416200     0.3357803007     0.6667494446 m  1  1  1 mag         0.0000000000
    0.6686989430     0.8357646213     0.6667586834 m  1  1  1 mag         0.0000000000

Fe #label
5 #magnetism
12 #number of atoms
    0.1663575576     0.3316594227     0.1666215507 m  1  1  1 mag         5.0000000000
    0.1664349322     0.8316454946     0.1667389985 m  1  1  1 mag         5.0000000000
    0.6664354321     0.3316452142     0.1667376319 m  1  1  1 mag         5.0000000000
    0.6663580249     0.8316595759     0.1666156455 m  1  1  1 mag         5.0000000000
    0.5002211517     0.5000242359     0.5000129099 m  1  1  1 mag         5.0000000000
    0.5002208221     0.0000305663     0.4999862274 m  1  1  1 mag         5.0000000000
    0.0002235620     0.5000305728     0.4999763328 m  1  1  1 mag         5.0000000000
    0.0002211362     0.0000234692     0.5000109125 m  1  1  1 mag         5.0000000000
    0.3334852379     0.1683385753     0.8333712540 m  1  1  1 mag         5.0000000000
    0.3334038108     0.6683404443     0.8332681679 m  1  1  1 mag         5.0000000000
    0.8334033231     0.1683414472     0.8332696039 m  1  1  1 mag         5.0000000000
    0.8334838577     0.6683393924     0.8333806115 m  1  1  1 mag         5.0000000000

O #label
0 #magnetism
24 #number of atoms
    0.9965649057     0.9806037420     0.2370766454 m  1  1  1 mag         0.0000000000
    0.0065279652     0.5242286665     0.2374901460 m  1  1  1 mag         0.0000000000
    0.5065291163     0.0242262430     0.2374885631 m  1  1  1 mag         0.0000000000
    0.4965701779     0.4806065456     0.2370765778 m  1  1  1 mag         0.0000000000
    0.3260905345     0.1389912579     0.0958937701 m  1  1  1 mag         0.0000000000
    0.3363624109     0.6828471817     0.0963323178 m  1  1  1 mag         0.0000000000
    0.8363679185     0.1828506954     0.0963327823 m  1  1  1 mag         0.0000000000
    0.8260919109     0.6389903190     0.0958919507 m  1  1  1 mag         0.0000000000
    0.3404117585     0.1927811814     0.5708436374 m  1  1  1 mag         0.0000000000
    0.3302451845     0.6489708071     0.5703049932 m  1  1  1 mag         0.0000000000
    0.8302553830     0.1489757750     0.5703059671 m  1  1  1 mag         0.0000000000
    0.8404148598     0.6927792236     0.5708413652 m  1  1  1 mag         0.0000000000
    0.1599538898     0.3072312447     0.4291556204 m  1  1  1 mag         0.0000000000
    0.1701976382     0.8510982006     0.4296979660 m  1  1  1 mag         0.0000000000
    0.6701904115     0.3510938769     0.4296982514 m  1  1  1 mag         0.0000000000
    0.6599516326     0.8072336948     0.4291581432 m  1  1  1 mag         0.0000000000
    0.1737666810     0.3610121006     0.9041118811 m  1  1  1 mag         0.0000000000
    0.1635120743     0.8171919969     0.9036786407 m  1  1  1 mag         0.0000000000
    0.6635050093     0.3171873177     0.9036784438 m  1  1  1 mag         0.0000000000
    0.6737657758     0.8610152025     0.9041144558 m  1  1  1 mag         0.0000000000
    0.0032672863     0.0193661552     0.7629254171 m  1  1  1 mag         0.0000000000
    0.9933131854     0.4757502897     0.7625191717 m  1  1  1 mag         0.0000000000
    0.4933154501     0.9757463199     0.7625171699 m  1  1  1 mag         0.0000000000
    0.5032771091     0.5193710994     0.7629263668 m  1  1  1 mag         0.0000000000
