ATOMIC_SPECIES
Si	1	Si_ONCV_PBE-1.0.upf
C	1	C_ONCV_PBE-1.0.upf

NUMERICAL_ORBITAL
Si_gga_7au_100Ry_2s2p1d.orb
C_gga_7au_100Ry_2s2p1d.orb

LATTICE_CONSTANT
1.889766

LATTICE_VECTORS
0.0	2.179015	2.179015
2.179015	0.0	2.179015
2.179015	2.179015	0.0

ATOMIC_POSITIONS
Direct

Si
0.0
1
0.0	0.0	0.0	1 1 1

C
0.0
1
0.25	0.25	0.25	1 1 1
